LAMMPS (29 Sep 2021 - Update 1)
OMP_NUM_THREADS environment is not set. Defaulting to 1 thread. (src/comm.cpp:98)
  using 1 OpenMP thread(s) per MPI task
package gpu 0
package gpu 0
variable    T equal 300.0
variable    V equal vol
variable    dt equal 1.0

variable    s equal 1       # sample interval
variable    p equal 5000     # correlation length
variable    d equal $p*$s   # dump interval
variable    d equal 5000*$s   
variable    d equal 5000*1   

variable    ttt equal 1000*$d
variable    ttt equal 1000*5000

# convert from LAMMPS real units to SI

variable    kB equal 1.3806504e-23    # [J/K] Boltzmann
variable    atm2Pa equal 101325.0
variable    A2m equal 1.0e-10
variable    fs2s equal 1.0e-15
variable    convert equal ${atm2Pa}*${atm2Pa}*${fs2s}*${A2m}*${A2m}*${A2m}
variable    convert equal 101325*${atm2Pa}*${fs2s}*${A2m}*${A2m}*${A2m}
variable    convert equal 101325*101325*${fs2s}*${A2m}*${A2m}*${A2m}
variable    convert equal 101325*101325*1e-15*${A2m}*${A2m}*${A2m}
variable    convert equal 101325*101325*1e-15*1e-10*${A2m}*${A2m}
variable    convert equal 101325*101325*1e-15*1e-10*1e-10*${A2m}
variable    convert equal 101325*101325*1e-15*1e-10*1e-10*1e-10

# setup problem
atom_style      full
boundary        p p p
units           real

pair_style   lj/cut/coul/long 12.0 12.0
bond_style   harmonic
angle_style  harmonic
kspace_style pppm 0.0001

read_data SPCE_OPT.data
Reading data file ...
  orthogonal box = (2.1051585 2.1051585 2.1051585) to (39.394841 39.394841 39.394841)
  1 by 1 by 2 MPI processor grid
  reading atoms ...
  5184 atoms
  reading velocities ...
  5184 velocities
  scanning bonds ...
  2 = max bonds/atom
  scanning angles ...
  1 = max angles/atom
  reading bonds ...
  3456 bonds
  reading angles ...
  1728 angles
Finding 1-2 1-3 1-4 neighbors ...
  special bond factors lj:    0        0        0       
  special bond factors coul:  0        0        0       
     2 = max # of 1-2 neighbors
     1 = max # of 1-3 neighbors
     1 = max # of 1-4 neighbors
     2 = max # of special neighbors
  special bonds CPU = 0.001 seconds
  read_data CPU = 0.024 seconds

pair_coeff     1 1 0.1553 3.166
pair_coeff     * 2 0.0 0.0

bond_coeff 1    600.0 1.0
angle_coeff 1   75.0 109.47
special_bonds   lj/coul 0.0 0.0 0.5
Finding 1-2 1-3 1-4 neighbors ...
  special bond factors lj:    0        0        0.5     
  special bond factors coul:  0        0        0.5     
     2 = max # of 1-2 neighbors
     1 = max # of 1-3 neighbors
     1 = max # of 1-4 neighbors
     2 = max # of special neighbors
  special bonds CPU = 0.001 seconds


neighbor 2.0 bin
neigh_modify delay 1 every 1  check yes

fix	       fshake all shake 0.0001 20 0 b 1 a 1
       0 = # of size 2 clusters
       0 = # of size 3 clusters
       0 = # of size 4 clusters
    1728 = # of frozen angles
  find clusters CPU = 0.000 seconds

timestep     ${dt}
timestep     1
thermo       $d
thermo       5000
thermo_style    custom step temp vol press etotal pe ke epair ecoul lx ly lz density cpuremain

# equilibration and thermalization

#velocity     all create ${T} 12345 mom yes rot yes dist gaussian
fix          NVT all nvt temp $T $T 100 drag 0.2
fix          NVT all nvt temp 300 $T 100 drag 0.2
fix          NVT all nvt temp 300 300 100 drag 0.2
run          10000

CITE-CITE-CITE-CITE-CITE-CITE-CITE-CITE-CITE-CITE-CITE-CITE-CITE

Your simulation uses code contributions which should be cited:

- GPU package (short-range, long-range and three-body potentials):

@Article{Brown11,
 author = {W. M. Brown, P. Wang, S. J. Plimpton, A. N. Tharrington},
 title = {Implementing Molecular Dynamics on Hybrid High Performance Computers - Short Range Forces},
 journal = {Comp.~Phys.~Comm.},
 year =    2011,
 volume =  182,
 pages =   {898--911}
}

@Article{Brown12,
 author = {W. M. Brown, A. Kohlmeyer, S. J. Plimpton, A. N. Tharrington},
 title = {Implementing Molecular Dynamics on Hybrid High Performance Computers - Particle-Particle Particle-Mesh},
 journal = {Comp.~Phys.~Comm.},
 year =    2012,
 volume =  183,
 pages =   {449--459}
}

@Article{Brown13,
 author = {W. M. Brown, Y. Masako},
 title = {Implementing Molecular Dynamics on Hybrid High Performance Computers â€“ Three-Body Potentials},
 journal = {Comp.~Phys.~Comm.},
 year =    2013,
 volume =  184,
 pages =   {2785--2793}
}

@Article{Trung15,
 author = {T. D. Nguyen, S. J. Plimpton},
 title = {Accelerating dissipative particle dynamics simulations for soft matter systems},
 journal = {Comput.~Mater.~Sci.},
 year =    2015,
 volume =  100,
 pages =   {173--180}
}

@Article{Trung17,
 author = {T. D. Nguyen},
 title = {GPU-accelerated Tersoff potentials for massively parallel Molecular Dynamics simulations},
 journal = {Comp.~Phys.~Comm.},
 year =    2017,
 volume =  212,
 pages =   {113--122}
}

@Article{Nikolskiy19,
 author = {V. Nikolskiy, V. Stegailov},
 title = {GPU acceleration of four-site water models in LAMMPS},
 journal = {Proceeding of the International Conference on Parallel Computing (ParCo 2019), Prague, Czech Republic},
 year =    2019
}

CITE-CITE-CITE-CITE-CITE-CITE-CITE-CITE-CITE-CITE-CITE-CITE-CITE

PPPM initialization ...
  using 12-bit tables for long-range coulomb (src/kspace.cpp:340)
  G vector (1/distance) = 0.21954781
  grid = 16 16 16
  stencil order = 5
  estimated absolute RMS force accuracy = 0.029788487
  estimated relative force accuracy = 8.9707142e-05
  using single precision MKL FFT
  3d grid and FFT values/proc = 5733 2048
Per MPI rank memory allocation (min/avg/max) = 15.91 | 15.92 | 15.92 Mbytes
Step Temp Volume Press TotEng PotEng KinEng E_pair E_coul Lx Ly Lz Density CPULeft 
       0    302.91727    51852.067   -414.29842   -16012.271   -19131.925    3119.6537   -19131.925    53898.234    37.289683    37.289683    37.289683   0.99694371            0 
    5000    297.15878    51852.067    348.94818   -16117.456   -19177.804    3060.3487   -19177.804    53644.701    37.289683    37.289683    37.289683   0.99694371    4.7453671 
   10000     298.0381    51852.067    259.55905   -16191.429   -19260.833    3069.4046   -19260.833    53563.575    37.289683    37.289683    37.289683   0.99694371            0 
Loop time of 9.47499 on 2 procs for 10000 steps with 5184 atoms

Performance: 91.187 ns/day, 0.263 hours/ns, 1055.410 timesteps/s
84.2% CPU use with 2 MPI tasks x 1 OpenMP threads

MPI task timing breakdown:
Section |  min time  |  avg time  |  max time  |%varavg| %total
---------------------------------------------------------------
Pair    | 1.8004     | 1.8586     | 1.9168     |   4.3 | 19.62
Bond    | 0.0018983  | 0.0020319  | 0.0021656  |   0.3 |  0.02
Kspace  | 3.2386     | 3.2565     | 3.2744     |   1.0 | 34.37
Neigh   | 0.01408    | 0.01467    | 0.01526    |   0.5 |  0.15
Comm    | 1.6168     | 1.6263     | 1.6358     |   0.7 | 17.16
Output  | 5.579e-05  | 6.8307e-05 | 8.0824e-05 |   0.0 |  0.00
Modify  | 2.3576     | 2.3895     | 2.4213     |   2.1 | 25.22
Other   |            | 0.3273     |            |       |  3.45

Nlocal:        2592.00 ave        2596 max        2588 min
Histogram: 1 0 0 0 0 0 0 0 0 1
Nghost:        17349.0 ave       17357 max       17341 min
Histogram: 1 0 0 0 0 0 0 0 0 1
Neighs:         0.00000 ave           0 max           0 min
Histogram: 2 0 0 0 0 0 0 0 0 0

Total # of neighbors = 0
Ave neighs/atom = 0.0000000
Ave special neighs/atom = 2.0000000
Neighbor list builds = 487
Dangerous builds = 0

# viscosity calculation, switch to NVE if desired

#unfix       NVT
#fix         NVE all nve

reset_timestep 0
variable     pxy equal pxy
variable     pxz equal pxz
variable     pyz equal pyz
fix          SS all ave/correlate $s $p $d              v_pxy v_pxz v_pyz type auto file S0St.dat ave running
fix          SS all ave/correlate 1 $p $d              v_pxy v_pxz v_pyz type auto file S0St.dat ave running
fix          SS all ave/correlate 1 5000 $d              v_pxy v_pxz v_pyz type auto file S0St.dat ave running
fix          SS all ave/correlate 1 5000 5000              v_pxy v_pxz v_pyz type auto file S0St.dat ave running
variable     scale equal ${convert}/(${kB}*$T)*$V*$s*${dt}
variable     scale equal 1.0266755625e-35/(${kB}*$T)*$V*$s*${dt}
variable     scale equal 1.0266755625e-35/(1.3806504e-23*$T)*$V*$s*${dt}
variable     scale equal 1.0266755625e-35/(1.3806504e-23*300)*$V*$s*${dt}
variable     scale equal 1.0266755625e-35/(1.3806504e-23*300)*51852.0667444552*$s*${dt}
variable     scale equal 1.0266755625e-35/(1.3806504e-23*300)*51852.0667444552*1*${dt}
variable     scale equal 1.0266755625e-35/(1.3806504e-23*300)*51852.0667444552*1*1
variable     v11 equal trap(f_SS[3])*${scale}
variable     v11 equal trap(f_SS[3])*1.28526984556581e-10
variable     v22 equal trap(f_SS[4])*${scale}
variable     v22 equal trap(f_SS[4])*1.28526984556581e-10
variable     v33 equal trap(f_SS[5])*${scale}
variable     v33 equal trap(f_SS[5])*1.28526984556581e-10
thermo_style custom step time temp press v_pxy v_pxz v_pyz v_v11 v_v22 v_v33 cpuremain
run          ${ttt}
run          5000000
PPPM initialization ...
  using 12-bit tables for long-range coulomb (src/kspace.cpp:340)
  G vector (1/distance) = 0.21954781
  grid = 16 16 16
  stencil order = 5
  estimated absolute RMS force accuracy = 0.029788487
  estimated relative force accuracy = 8.9707142e-05
  using single precision MKL FFT
  3d grid and FFT values/proc = 5733 2048
Per MPI rank memory allocation (min/avg/max) = 15.91 | 15.92 | 15.92 Mbytes
Step Time Temp Press v_pxy v_pxz v_pyz v_v11 v_v22 v_v33 CPULeft 
       0        10000     298.0381    260.19709    314.69915   -145.04252   -133.23817 6.3643706e-06 1.3519325e-06 1.1408319e-06            0 
    5000        15000    306.23573     545.7456    -103.9841    83.777516    53.764366 0.0014292026 -0.00015454809 -0.0012599413    4848.8624 
   10000        20000    300.80378    42.102419   -72.848682   -86.205107    165.93459 0.00071036906 0.0020229996 -0.00026543546    4872.1872 
   15000        25000    306.56832   -85.925706    487.54308  -0.42845344   -314.57895 0.00049175964 0.0010401632 0.00025250471    4879.9801 
   20000        30000    305.86093   -211.14667    73.125557   -185.39396   -78.175581 0.00054036187 0.00070877721 0.0021328557    4881.8056 
   25000        35000    298.57515    490.95308    11.672571    34.419279    93.091194 0.00055353435 0.00060931916 0.0014167234    4878.8603 
   30000        40000    305.36129   -22.543246   -250.09459    67.421638   -363.16906 0.00048178915 0.00053615482 0.0012947953    4876.6444 
   35000        45000    299.40059     236.4802    232.31738   -609.87945   -213.57974 0.0003976218 0.00064311334 0.0010452076    4872.8564 
   40000        50000    294.51025   -478.22677   -92.331287    434.41468     195.8846 0.00046970523 0.00014179253 0.00094766606    4869.2681 
   45000        55000    298.76796   -52.004067    173.04937    254.90121    75.148343 0.00046812936 0.00010638092 0.00083276616    4864.7639 
   50000        60000    304.63268    198.57739   -95.351604   -74.583598   -318.07217 0.00053536538 0.00059201197 0.0011221333    4861.4055 
   55000        65000    299.38506    130.63978    359.16612   -436.59015   -196.99003 0.00057488808 0.00053412504 0.0013437786    4865.9008 
   60000        70000    294.93109    50.967074   -247.39386   -145.13131    -126.2472 0.00055945434 0.00052572477 0.0012674157    4861.6028 
   65000        75000    301.45581    286.78369   -71.386872   -35.572454   -740.67877 0.00048295567 0.00056533978 0.0011978894    4856.9783 
   70000        80000    301.76628   -64.656229   -63.871574   -306.83361    225.10065 0.00046725368 0.0005874642 0.0011587585    4851.2611 
   75000        85000    299.52707    113.20487   -45.755711   -88.059589    48.826535 0.00036128874 0.00055178075 0.0010794935    4846.2233 
   80000        90000    293.83645   -48.047087   -22.818212   0.38732877    48.149599 0.00033457632 0.00058771747 0.0010394153    4841.6984 
   85000        95000    297.75012   -185.44516   -315.09874    402.19157    207.90456 0.00031498346 0.00053943121 0.00095794191    4836.8299 
   90000       100000    297.19111   -123.76689    350.06604    193.00339    305.31859 0.00031934887 0.00054022578 0.00096388536    4831.7246 
   95000       105000    292.08394    288.25239     165.5476    125.32413    141.91474 0.00039582816 0.00050705132 0.00090335681    4826.2647 
  100000       110000    299.21801    45.142652   -195.44186    173.40148    500.06425 0.00039150354 0.00049965197 0.00085800211    4821.1166 
  105000       115000    297.89106   -73.140075   -38.399232    287.23475   -407.50566 0.00045361325 0.00052892862 0.00085699281    4816.3909 
  110000       120000    304.95576   -114.05269    626.65692   -68.156661   -298.50594 0.00055449586 0.00059919534 0.00083271851     4811.286 
  115000       125000    301.32888   -281.70008    141.50994   -190.62355    423.14254 0.00051288154 0.00052690121 0.00083059483    4806.0521 
  120000       130000    301.93525   -369.78697   -337.80196    95.256546   -2.1421241 0.00050387165 0.00048914471 0.00078170778    4800.8666 
  125000       135000    301.64958   -259.71145    258.33996    228.08904   -39.571168 0.0004998313 0.00049432003 0.00074873647    4795.7772 
  130000       140000    298.49966   -40.451282   -67.903204   -444.95196    111.41401 0.00048626341 0.00047456297 0.00072932962    4790.6572 
  135000       145000    302.31544    388.82037    240.94215     101.1576    10.101655 0.00044621704  0.000405972 0.00075892825    4785.6157 
  140000       150000    298.39924    36.651379   -547.99505    19.531196   -224.42075 0.00041423863 0.00037546746 0.00073587717    4780.5336 
  145000       155000    307.44244    482.07649   -13.665483   -1.2323885    316.44297 0.00039579861 0.00035548538 0.00071284876    4775.5598 
  150000       160000    297.20095    324.09636    24.826924    80.532701   -5.7019311 0.00042030832 0.00040533715 0.00068660663    4770.3592 
  155000       165000    298.56122    87.796819    214.22735    23.162923    161.53747 0.00050359352 0.00041208742 0.00068018171    4765.2328 
  160000       170000     304.5048    98.920447   -61.437468   -152.03263   -478.53054 0.00056535489 0.00036094208 0.00065738466    4760.5816 
  165000       175000    298.90698    169.40618    421.81276    169.01769   -142.99754 0.0006228014 0.00035985212 0.00063265915    4755.5263 
  170000       180000    296.67626    311.36752    66.319068   -435.91927   -252.19364 0.0005773976 0.00035172399 0.00063338332    4750.5313 
  175000       185000    294.27314   -164.46064   -20.463267   -108.61179   -399.52809 0.00064123498 0.00034434983 0.00060634297    4745.5197 
  180000       190000    296.68822    232.62527   -49.685776    536.03615    71.986664 0.00061344217 0.00034338497 0.00061798098    4740.4407 
  185000       195000    294.57561    123.47958   -587.51253    45.235411    239.04502 0.00059975137 0.00033508755 0.00061349097    4735.4654 
  190000       200000     304.5056    201.80979     -340.656   -451.14297    9.1276331 0.00057685811 0.0004404508 0.00058143377    4730.3298 
  195000       205000    292.34736    186.90205   -285.80271     318.5345     -271.079 0.00054678978 0.00038815497 0.00055977804    4725.5714 
  200000       210000    301.40001    390.70022    116.85237    316.07466    213.88171 0.00053032091 0.00038057777 0.00057230824    4720.8161 
  205000       215000    301.21448    88.813006   -163.35006    133.42356    269.86924 0.00050907895 0.00038978844 0.00055136357    4715.9236 
  210000       220000    299.62431   -281.43859   -91.273902    -261.3604    95.614578 0.00051830909 0.0003953578 0.00054486031    4710.7733 
  215000       225000    298.50453    144.28322     332.1681    -13.91202   -63.757068 0.00050942036 0.00044450764 0.00053227731    4705.9786 
  220000       230000    303.27829    204.33877    426.10989   -165.53267   -204.73807 0.00050826021 0.00040021157 0.00051832901    4700.7651 
  225000       235000     299.2675    73.603253    21.969876    467.95131   -2.1579522 0.00049054708 0.0003958166 0.00051233637    4695.6119 
  230000       240000    295.02487    227.86274   -77.974038   -448.86319    691.31977 0.00048517133 0.00039162067 0.00050279405    4690.5732 
  235000       245000    299.69473   -58.894348    400.52505    106.70819    82.087887 0.00048930244 0.00038924605 0.00050581569    4685.5376 
  240000       250000    297.88788    149.22052    86.298002    67.757204   -206.50954 0.00050843997 0.00039324211 0.00049012983    4680.4172 
  245000       255000    303.11867    522.94389   -161.49435    30.586691   -12.071471 0.00052028955 0.00038699081 0.00052808695    4675.5157 
  250000       260000    299.15898   -197.32828     28.38756    419.37625   -429.94673 0.00055626734 0.00038086062 0.00050756738    4670.5321 
  255000       265000    295.51447    266.96558    286.54269   -55.183628   -388.43681 0.00055010375 0.00038817521 0.00050300432    4665.3429 
  260000       270000    300.49783   -143.99435   -69.373866   -396.89089    517.55197 0.00053660485 0.00037931863 0.00050280505     4660.251 
  265000       275000    305.34342    367.42366    521.17309   -648.57129   -18.000622 0.00050659501 0.00039672211 0.00053115892    4655.4547 
  270000       280000    302.17979   -183.83043   -282.78234   -382.02152    -20.59925 0.00050462176 0.00040922617  0.000519729    4650.6591 
  275000       285000    309.66628    133.84681    428.34188    62.073129   -84.613205 0.00050851153 0.00040543973 0.00051038176    4645.6359 
  280000       290000    300.86887   -173.04993    -165.9912     -215.561    60.382336 0.00052532974 0.00039650563 0.00049645078    4640.6689 
  285000       295000    299.50268   -43.799365   -311.05052    266.25612    325.99435 0.00051195635 0.00039213623 0.00048790274    4635.7107 
  290000       300000    296.23674     77.33248    439.13885   -240.45168    399.52831 0.00051506139 0.00043789188 0.00051225912    4630.7805 
  295000       305000    294.16217    306.59231   -269.30326    303.78338    93.267964 0.0005177497 0.0004356561 0.00053213883    4626.0901 
  300000       310000    300.16994   -121.59597     393.2023   -187.82739   -140.27566 0.00056667652 0.00044434759 0.00052928754    4621.4274 
  305000       315000    300.25684   -18.914936    504.19138    166.43151    56.413213 0.00057868895 0.00044464561 0.00051129022    4616.4719 
  310000       320000    297.32008    242.38669    117.58627   -388.49511    111.07553 0.00056780247 0.00043267247 0.00050469442    4611.6694 
  315000       325000    295.77036   -619.60549   -625.41585    97.255734    16.726097 0.00055932377 0.00044490559 0.00048867071    4606.6724 
  320000       330000    297.35746   -106.85656   -124.54359    186.89955    -351.3343 0.00056112559 0.00043744869 0.00048799917    4601.7994 
  325000       335000    301.42436   -18.164821   -95.890801    547.52833   -455.23838 0.00057525626 0.00043180954 0.00048982093    4596.9379 
  330000       340000    300.12604   -228.93974    140.15466    292.15874   -373.22496 0.00056475932 0.00042588413 0.00048704376    4591.9398 
  335000       345000    302.68941    388.36391    674.73019   -28.153505   -115.28471 0.00055788066 0.00042342111 0.00049362688    4586.9694 
  340000       350000    298.94752   -641.83041    7.2720941    25.225105    69.464288 0.00055623645 0.00041504391 0.00049890688    4581.9656 
  345000       355000    309.04844    76.006352    63.436542   -198.32253    298.41685 0.00061467173 0.00041201353 0.00049168868    4577.1953 
  350000       360000    299.58192   -21.996733     18.40915    152.29418     607.8436 0.00075131529 0.00041057001 0.00048708797    4572.3333 
  355000       365000    297.33016    20.804158   -165.25727    36.772753   -670.38934 0.00074729801 0.00044481976 0.00047982619    4567.5075 
  360000       370000    299.35692    141.46228   -203.67532    71.010307   -327.78162 0.00074556662 0.00042928862 0.00048352869    4562.4887 
  365000       375000    306.58918   -90.737425   -143.48008   -289.74215   -228.12932 0.00073534121 0.00041636021 0.00051740404    4557.4509 
  370000       380000    304.05536    39.787592   -379.95484     71.81665    22.437599 0.0007222974 0.00040665454 0.00050874318     4552.469 
  375000       385000    295.20264   -305.47896    98.748638     68.58313   -142.04735 0.00071761286 0.00040144417 0.00051132477    4547.4706 
  380000       390000     303.8036    73.464146    19.841177    110.89955   -309.31972 0.00070778535 0.00041917606 0.0006187179    4542.5818 
  385000       395000    304.34972   -46.707868   -696.34026    360.10733   -130.33313 0.00073074287 0.00039942734 0.00062612952    4537.6206 
  390000       400000    297.46322   -208.99276   -462.53265    36.162849    2.3554246 0.00073335566 0.00039971112 0.00061942985    4532.8124 
  395000       405000    301.06224    58.426177    168.59711   -404.80226    57.712972 0.00070878055 0.00039643717 0.00061012138    4527.9209 
  400000       410000    301.46462     492.2878    78.888114    103.98242    124.63313 0.00071101981 0.00039099991 0.00060186506    4523.1338 
  405000       415000    308.12768    187.07829    54.359873    -115.6106    390.65479 0.00073511784 0.00038686318 0.00059621293    4518.1762 
  410000       420000    302.35771    369.40185    170.80582    145.23827    558.25915 0.00072147357 0.00039530053 0.00060019528    4513.2485 
  415000       425000    301.43902   -216.59126    156.29276    119.60499    67.486377 0.00071719531 0.00038796442 0.00059503484    4508.3436 
  420000       430000    300.40865   -9.6461211   -188.73279    -363.5011   -56.313733 0.00070535801 0.00040925198 0.00059685508    4503.5817 
  425000       435000    307.70075    -115.6944    369.22546    212.65987     140.5246 0.00070086475 0.00040044738 0.0006040177    4498.5787 
  430000       440000    298.77296     -123.469    139.56858    131.64581   -459.40832 0.00069662904 0.0003977569 0.00062298445    4493.6099 
  435000       445000    302.26574    139.16031    5.5239251   -171.99368    89.198161 0.0007416543 0.00039344545 0.00061997123    4488.6376 
  440000       450000    301.55231    168.57717     158.5715    163.11503   -86.927304 0.00074659964 0.00040070838 0.00060581932    4483.6967 
  445000       455000    293.45105    335.13698    477.54372    310.13328    260.58716 0.00075842095 0.00039033673 0.00060700383    4478.8086 
  450000       460000    306.96625    508.00847   -358.37598    152.22561   -304.28518 0.00074391059 0.00037447953 0.00059863623    4473.8671 
  455000       465000    298.44235    32.806547    469.51022     517.3511   -60.917763 0.00072998027 0.00036530398 0.00059598282    4468.9257 
  460000       470000    305.54114    435.95015     -14.0746    95.855796    133.55384 0.00072721802 0.00037953859 0.00058734288    4463.9986 
  465000       475000    302.92137    164.13441   -329.17773   -255.33971    533.87973 0.00071623857 0.00039867666 0.00058127799    4459.0113 
  470000       480000    300.77272    161.38304   -86.979717   -242.42882    307.12828 0.00070642562 0.00039298994 0.00059519527    4454.1836 
  475000       485000    296.98392    376.80662    81.212526    48.439603    184.98893 0.00069944989 0.00039776764 0.0006059425    4449.3303 
  480000       490000    299.23869    22.415841   -44.352986    103.58075    42.648088 0.00069449378 0.00038544744 0.0005939139    4444.2813 
  485000       495000    299.38112   -282.56825    118.68666   -8.7757097    292.11152 0.00069843007 0.00038085248 0.00057714012     4439.269 
  490000       500000    294.07949    382.34718   -65.892559    388.55192   -126.12184 0.00069348782 0.00038113507 0.00056695653    4434.3759 
  495000       505000    300.43674   -52.089374    345.69506    485.22742   -216.72574 0.00068540897 0.00039141189 0.00056579064     4429.476 
  500000       510000    300.10113   -37.967718    251.25888       16.958   -46.553712 0.00067510745 0.00038151435 0.00056435374     4424.568 
  505000       515000    296.54152    781.61601    234.63117   -80.137921    158.79982 0.00067158279 0.00038396012 0.00057250298    4419.7149 
  510000       520000    296.51219    251.16183    499.03547    69.914778    -202.4837 0.00068190444 0.00039780801 0.00057780603    4414.8019 
  515000       525000    303.69929   -77.492841    262.93266    202.18084   -178.36245 0.00067594003 0.00040083154 0.00057160405    4409.7992 
  520000       530000    303.79577    558.91078   -272.16836   -218.05567   -285.88945 0.00067344561 0.00044880816 0.00056009766    4404.7853 
  525000       535000    299.98752    340.81476   -496.86586   -223.56976    57.803105 0.00066569247 0.00044890842 0.00055266141     4399.856 
  530000       540000    300.61782    811.63023    142.96235    175.04065    97.671906 0.00065612598 0.00045658164 0.00055123261     4394.876 
  535000       545000    302.26433    447.01467   -41.730289   -230.15444    276.51279 0.00066911124 0.00046674931 0.00055208314    4389.9375 
  540000       550000    291.15111   -421.48547    27.793251   -184.63532   -428.50775 0.00065621767 0.00048314539 0.00054463649    4385.0554 
  545000       555000    302.97212    153.71694    211.25192   -389.23042    -22.32321 0.0006721179 0.00049664837 0.00056076593    4380.0903 
  550000       560000    300.12385    227.94245   -499.97013   -346.78423    115.66652 0.00068380584 0.00051065415 0.00056783083    4375.1899 
  555000       565000    296.50895   -445.75985   -226.47308   -130.36597     477.4323 0.00070315015 0.00050913583 0.00058783741    4370.2684 
  560000       570000    299.20818    149.99991    338.51229     150.3626   -393.67751 0.00070546485 0.00050852338 0.00057245517    4365.3994 
  565000       575000     292.6459   -9.5944442  -0.65421996   -51.248791   -220.51824 0.00070326071 0.00052066352 0.00056775971    4360.4111 
  570000       580000    299.18074     131.7449    82.683458   -134.27156   -79.409255 0.00068844695 0.0005301081 0.00056975209    4355.5042 
  575000       585000    303.67565    350.50617    52.562836   -266.31103    25.025399 0.0006785845 0.00052292057 0.00056351833    4350.5917 
  580000       590000    302.55752    645.43943    272.50139   -283.60749   -15.362716 0.00068297892 0.00052231165 0.00055542727    4345.6872 
  585000       595000    298.26933   -60.253286    -213.8242    135.03662    215.71475 0.00068308389 0.00052578053 0.00055525535    4340.8048 
  590000       600000    297.10153   -453.93113    110.11266   -213.18792    7.2040288 0.00069977881 0.00051977116 0.00054493718    4335.9016 
  595000       605000    293.17228    196.11517   -193.36251   -453.90093    -290.5611 0.0007248167 0.00051856314 0.00055171419    4331.0278 
  600000       610000    298.88367    308.91751    179.33332   -115.89073    76.026662 0.00072806075 0.0005155637 0.00054696806    4326.0889 
  605000       615000     294.5033    511.42507   -135.95735    125.29815   -468.89838 0.00072542555 0.00051471429 0.00054714729    4321.1695 
  610000       620000    301.87348    45.444255    374.96915   -419.29938   -495.09367 0.00073656615 0.00051149947 0.00054337822    4316.2076 
  615000       625000    305.50421    401.74433   -89.211231   -148.84168   -101.89388 0.0007284041 0.00050690469 0.00053807184    4311.2489 
  620000       630000    309.50762   -76.055164   -64.469401    -240.1548   -54.342001 0.00072481899 0.00050911321 0.00053433876    4306.3765 
  625000       635000    310.89078   -195.21658    226.83027    86.657988    -133.3681 0.00072669694 0.00054361442 0.00053703425    4301.4674 
  630000       640000    299.42982   -32.676258   -106.41336    223.44077    358.28616 0.00072153621 0.00054516368 0.00052890688    4296.6219 
  635000       645000    300.30009   -55.573216    295.30302   -573.09188   -109.25414 0.00071438983 0.00054685133 0.00053150824    4291.7015 
  640000       650000    305.93049   -278.00952   -88.849042    194.16645    133.18054 0.00071229689 0.00055016864 0.00053327085    4286.7564 
  645000       655000      297.667   -590.43796   -225.69378      238.808     129.9954 0.0007127892 0.00057093448 0.00052937433      4281.81 
  650000       660000     303.6407   -478.63401    505.76868   -568.61624     201.9592 0.00072834986 0.00056314973 0.00052545395    4276.8598 
  655000       665000    292.83799   -367.25013   -60.265638    4.6962484   -296.52745 0.00071895114 0.00056256679 0.00053119114    4271.9312 
  660000       670000    299.37147    226.31727    436.61684     308.5295   -443.54694 0.00071468923 0.00056048853 0.00052150161    4267.0547 
  665000       675000    296.90653    252.60224    322.30294    415.70786    550.77457 0.00071042849 0.00055386732 0.00053090759    4262.0747 
  670000       680000    302.20319    151.82243   -26.506307   -48.018802    62.498411 0.00071156252 0.00054888996 0.0005225411    4257.1509 
  675000       685000    298.05595    111.47871    282.17598   -236.63116   -341.19917 0.00070665906 0.00054868509 0.00051595313    4252.1706 
  680000       690000    301.23221   -294.24685   -33.404055    11.979704   -209.65004 0.00070482967 0.00056680718 0.00052165224    4247.1896 
  685000       695000     301.6338   -171.28541    362.40694   -587.34202   -3.9867135 0.0007032041 0.00057049479 0.00052052883    4242.2363 
  690000       700000    305.58914    200.71118     87.28806   -302.88696    25.262846 0.00069982981 0.00057000219 0.00051836329    4237.3399 
  695000       705000    296.28753    477.88447    259.41468   -318.07164   -329.17487 0.00069671424 0.00059720411 0.00053746616     4232.389 
  700000       710000    298.39176    229.41724    40.184251   -68.465411   -242.29719 0.00069203341 0.00060195934 0.0005511888    4227.5296 
  705000       715000    299.83127    109.16847   -37.042249    -434.5426   -18.364166 0.00069027596 0.00061898562 0.00055157265     4222.633 
  710000       720000    299.64135    433.91201   -233.38657    28.007385   -420.39786 0.00069624852 0.00065716065 0.00054586207    4217.6871 
  715000       725000    295.56988     436.3624   -406.99627    76.058799    25.902116 0.00069407352 0.00064591971 0.00054200625    4212.7279 
  720000       730000     296.4141   -36.784984   -233.60732   -175.39124    25.698233 0.00071414934 0.00063912686 0.00054822859    4207.7994 
  725000       735000    299.73457   -89.430017    350.37596   -474.74712   -128.81376 0.00070895923 0.00064075997 0.0005408888    4202.7765 
  730000       740000    295.06809    173.62276    42.943898   -222.97652   -126.16404 0.00071376671 0.00064211529 0.00054346273    4197.8096 
  735000       745000    307.13486    191.41786   -151.51289    273.25214   -217.66736 0.00070726863 0.00063916664 0.00053822152    4192.8629 
  740000       750000     299.4038    37.224216    91.862703    417.53226   -101.35691 0.00070386284 0.00063430791 0.00053191024    4187.9129 
  745000       755000    299.86149    84.717587   -408.94278   -263.87128   -46.860913 0.00071072123 0.0006360796 0.00053750055    4182.9841 
  750000       760000    305.09417    309.94465     -49.6991   -117.89332   -424.20286 0.00070411294 0.00063533031 0.0005354162    4178.0456 
  755000       765000     304.1143    967.76711    369.72226   -239.75269   -482.83634 0.00070202957 0.00063084803 0.00055107808    4173.1561 
  760000       770000    303.37032    971.88156    212.44327     177.6482    276.65922 0.00069770377 0.00063048909 0.00054685684    4168.1897 
  765000       775000      298.165   -304.45408   -298.13993   -70.660814   -233.18115 0.00070586528 0.00063821279 0.00054842799    4163.2514 
  770000       780000    303.07778    183.78608   -486.03599   -222.58959   -80.616812 0.00073507424 0.00063380272 0.00054046359     4158.347 
  775000       785000      296.777    596.73779     -154.672   -340.05535   -443.22381 0.00073330425 0.00065491626 0.00053725369    4153.4455 
  780000       790000    302.97118   -197.07739   -159.21666    -524.5902   -293.19968 0.00072118802 0.00065077277 0.00053185399    4148.5267 
  785000       795000    302.54224    79.203162   -124.37324   -173.06449     195.2699 0.00071777835 0.00064690755 0.00054235613    4143.6292 
  790000       800000    298.75146    359.94515   -50.609776   -639.71456   -51.033414 0.00071659246 0.0006442112 0.00054407778    4138.7024 
  795000       805000     299.6662    390.15208   -65.354018   -403.50537    485.59725 0.0007114022 0.00063955142 0.00054081222     4133.815 
  800000       810000    303.42395    167.51269   -93.453749    192.71996    478.34648 0.00071256688 0.00063805896 0.00054441851    4128.8985 
  805000       815000    301.27264    760.54596    721.97676    140.54822   -160.69228 0.00070980472 0.00063836169 0.0005489432    4123.9978 
  810000       820000    298.96378   -139.15526   -71.513798   -175.66098    68.257143 0.00070470445 0.00063523793 0.00055679175    4119.0669 
  815000       825000    298.62003   -370.12056    58.874264    124.98741   -77.043933 0.00071428076 0.0006359913 0.00055077547    4114.1791 
  820000       830000    294.07608   -349.90983    -223.2537    396.55365    417.37075 0.00070376815 0.00064025977 0.00054747982    4109.1766 
  825000       835000    293.02728   -477.96453   -19.647397   -260.07868    131.96167 0.00071301336 0.00063607561 0.00053990768    4104.2247 
  830000       840000    303.22496   -199.18566    -437.0259   -345.91263    333.03277 0.00071341527 0.00063302549 0.00053938655    4099.2722 
  835000       845000    296.52679   -128.59226   -377.24904   -225.60538   -1.5120778 0.00071043175 0.00063236536 0.00053620313    4094.2928 
  840000       850000    294.20841    235.63612    29.849751    175.05239   -403.40113 0.00070865892 0.0006280773 0.00053642843    4089.3274 
  845000       855000     307.4144    1.5682445    236.46136    102.33451   -5.4034811 0.00070514413 0.00062457732 0.00054770078    4084.3991 
  850000       860000    298.49379   -30.723788   -76.013779    -441.6244    17.779364 0.00070280286 0.00063367376 0.00054776829    4079.4902 
  855000       865000    291.86368    508.38431   -409.30496    123.54123    181.29655 0.00071897858 0.00063304365 0.00054242775    4074.5271 
  860000       870000    306.09029    171.89963    12.314196   -35.921939    441.97614 0.00072349727 0.00062713339 0.00053775488    4069.5534 
  865000       875000    301.66589   -498.14189   -30.906279   -69.014812   -93.874211 0.00071694482 0.00062506914 0.00054416423    4064.5781 
  870000       880000    301.66189    75.395465    170.82893    86.722711   -232.50994 0.00071107032 0.00062473802 0.00054023578    4059.6704 
  875000       885000    304.78857    546.39574     320.6126   -737.46615    54.846937 0.00071056865 0.00062338758 0.00054410422    4054.7694 
  880000       890000    298.20411   -357.27357   -55.812306    -593.3043    34.522674 0.00070485031 0.00061792679 0.00055771347    4049.8132 
  885000       895000    295.34777   -171.32412    -25.40387   -499.94835   -284.20828 0.00071950719 0.0006154529 0.00055490856    4044.8588 
  890000       900000    302.27038    64.025049    203.90148    387.61446   -125.78889 0.0007176977 0.00061510136 0.00055843531    4039.8829 
  895000       905000    306.46613   -66.449812   -185.84573    107.43583   -161.44802 0.00071996515 0.00062331879 0.00055250447    4034.9619 
  900000       910000    292.64812    85.668777    186.03065     21.01688   -196.59766 0.0007190275 0.00062116848 0.00054858811    4029.9754 
  905000       915000    294.39615    194.88975    76.618651    8.7162329   -260.76624 0.00071531709 0.00061571539 0.00056078972    4025.0125 
  910000       920000    304.84446    30.801975    352.25877    -77.23018    171.62969 0.00071242033 0.00061306709 0.00056828416    4020.0688 
  915000       925000    303.23723    504.13309   -33.567944    201.11758   -46.007496 0.00070860026 0.00061208607 0.00056251812    4015.1799 
  920000       930000    306.73362    700.41515    216.30325    115.17437   -279.03821 0.00070819598 0.00060800992 0.00056041774    4010.2335 
  925000       935000    305.76111    10.261106    133.40825    168.56883    64.068694 0.0007051748 0.00060592346 0.00056079111    4005.2886 
  930000       940000    306.46644    76.660541   -139.03718    308.53092   -235.96248 0.00070190348 0.00060465672 0.00055739482    4000.3633 
  935000       945000    294.82205    528.93703    87.933335   -228.64298     490.9566 0.00069623224 0.00060295524 0.00055594937     3995.442 
  940000       950000    301.30022     267.8711   -215.27106   -104.50379    653.62815 0.0006945706 0.00059882814 0.00055323265    3990.4625 
  945000       955000    300.52376     738.4479   -115.04327    51.211023    448.22488 0.00068879078 0.00059705179 0.00055211118    3985.5184 
  950000       960000    302.25751    504.22509   -85.626704    210.36138   -264.68565 0.00069221192 0.00059159841 0.00055276486    3980.5705 
  955000       965000    299.60417   -240.17485    283.28635    155.32582   -307.48176 0.00068839911 0.00058639057 0.00055780771    3975.6375 
  960000       970000    308.02846    192.17658    231.15805    523.35004    17.940107 0.00068793103 0.00058506424 0.00055478298    3970.7354 
  965000       975000    299.58433    665.15512   -11.810269    227.88894    132.81883 0.00068428351 0.0005885524 0.00056137664    3965.7956 
  970000       980000    296.03071   -70.101468    -29.32215    -198.5355   -308.35193 0.00068225493 0.00059128435 0.00055912344    3960.8915 
  975000       985000    296.49821    335.48901   -308.20342   -234.46199   -189.48834 0.00067919443 0.00058810711 0.00055561831    3956.0205 
  980000       990000    301.59964   -263.68462   -586.49109    5.1947399   -583.22963 0.00067701363 0.00058968623 0.00055476323    3951.1229 
  985000       995000     296.5409    -168.0721    43.983516   -291.83549   -179.31305 0.00066891833 0.00058949025 0.00055182809    3946.1919 
  990000      1000000    300.47907    -357.7867    91.034358   -68.793493    6.1385783 0.00067079337 0.00059345984 0.00055016758     3941.285 
  995000      1005000    289.58842    904.49211   -530.05789     352.6909    361.83534 0.00067718342 0.00059116276 0.00054672283    3936.3865 
 1000000      1010000    298.25155    187.17818    503.06744    377.68781    246.85773 0.00067274754 0.00058821399 0.00053968118    3931.4464 
 1005000      1015000    301.19689     284.1985    369.83839    218.06811    62.012195 0.00066626933 0.00060137851 0.0005339592    3926.5026 
 1010000      1020000    310.37883   -453.78587    48.574786   -201.72982   -112.21693 0.00066737113 0.00062175438 0.0005361952    3921.5382 
 1015000      1025000    293.31424   -308.92294    118.63828    169.46539    100.60603 0.00065994666 0.00061773611 0.00052750205    3916.6099 
 1020000      1030000    297.44374    738.83966    133.27258    151.03185   -95.598979 0.00065690224 0.00063997155 0.0005243067    3911.6743 
 1025000      1035000    297.98873   -345.31896   -675.30763    35.976909    628.90075 0.00066634036 0.00069030112 0.00052098435    3906.7555 
 1030000      1040000    311.85802   -236.48959   -29.672717   -123.73279   -413.84199 0.00072280391 0.0006952515 0.0005286408    3901.7845 
 1035000      1045000    297.64669   -174.40083   -170.83919   -422.07265   -149.01407 0.00072961463 0.00068979159  0.000549847    3896.8586 
 1040000      1050000    302.02742    690.59745    184.41747   -359.08778   -292.97208 0.00073362168 0.00068561987 0.00055143123    3891.9522 
 1045000      1055000    306.86129    673.75828    126.92934    99.158234    342.83523 0.00073013277 0.00068273155 0.00054838043    3887.0222 
 1050000      1060000    300.23296    329.36952   -339.33516   -350.49929    221.93348 0.00072682376 0.00068240369 0.00054721617    3882.1058 
 1055000      1065000    302.56885   -591.63535    41.956755     295.7402   -153.98904 0.00072537956 0.00068181137 0.00054957336    3877.2182 
 1060000      1070000    297.99642    345.64529     257.0717     243.0134    133.27722 0.00072571373 0.00068098768 0.00054934148    3872.2705 
 1065000      1075000    306.69995    151.34089    333.49804    450.29835   -147.88388 0.00072908588 0.00067642277 0.00055574187    3867.3473 
 1070000      1080000     298.7616    149.53579   -455.88425   -1.9317505   -156.94505 0.00072489411 0.00067167219 0.0005480262      3862.41 
 1075000      1085000    299.17558   -86.367057    168.98633   -139.10223    244.64518 0.00072688953 0.00066569387 0.00053963872    3857.4766 
 1080000      1090000    313.31789     8.426452    97.187476    792.52329    108.56502 0.00072369227 0.00066052179 0.00054306231    3852.5409 
 1085000      1095000    302.64526   -430.59149   -719.72154    -171.1503    74.643349 0.00072006326 0.00065721388 0.00054217714    3847.6228 
 1090000      1100000    298.23745   -54.453199   -74.309051   -456.08964    151.86917 0.00071782079 0.00065312352 0.00053762244     3842.702 
 1095000      1105000    300.03342    242.22819    426.43779    190.84903    239.49255 0.00071434561 0.00066467493 0.00053768616    3837.7497 
 1100000      1110000    296.07612    52.693218   -182.25846   -165.35783      82.1219 0.00071110201 0.00067034158 0.00053488542    3832.8641 
 1105000      1115000    304.09998     74.93965    574.42682    682.22713   -251.06907 0.00071833429 0.00066601553 0.00053078071     3827.936 
 1110000      1120000    295.29247    186.65254    149.24059   -67.180809   -189.90793 0.00071348326 0.00067537862 0.00053057722    3823.0093 
 1115000      1125000    303.93741   -242.08206   -556.96138     307.1061   -650.56239 0.0007098941 0.00068753938 0.00052917551    3818.1029 
 1120000      1130000     299.5265    411.64741      53.1306   -29.361271   -82.783327 0.00070827445 0.00068870895 0.00052473944    3813.2011 
 1125000      1135000     302.0027    157.42446    348.71273   -80.529236   -151.32662 0.00070570758 0.00068733079 0.00052456063    3808.2781 
 1130000      1140000    303.09823   -135.06654   -207.98324   -107.65254   -135.57894 0.00070805677 0.00068400073 0.00052352669    3803.3646 
 1135000      1145000    301.72048    202.53114   -245.24252   -165.73616   -196.37123 0.0007137159 0.00068232218 0.00051951037    3798.4588 
 1140000      1150000    297.75242   -89.971848   -326.44895    42.840614   -30.916683 0.00071079426 0.00068168846 0.00051869264    3793.5327 
 1145000      1155000    305.93483    273.98163     323.4943   -65.914834   -204.55722 0.00070901772 0.00068510723 0.00051572787     3788.632 
 1150000      1160000    304.65411     213.5102   -74.848748    -154.5249   -339.44196 0.0007040999 0.00068592498 0.00051548967    3783.7124 
 1155000      1165000    301.65154   -163.36333    483.95939    -5.053283    222.31945 0.00070241416 0.0006911207 0.00051547058    3778.7798 
 1160000      1170000    304.31163    697.59937   -154.29829   -12.041545    283.07836 0.0007105071 0.00069473595 0.00051717312    3773.8664 
 1165000      1175000    294.98235    262.11653    -381.4538   -346.34633   -111.96618 0.00071230298 0.0006959815 0.00052651842    3768.9428 
 1170000      1180000     295.2139    216.13564    -376.7814    173.31283    114.32131 0.00071832267 0.00069616721 0.00052557019     3764.011 
 1175000      1185000    296.09832    409.28227   -137.18906   -264.58748   -16.378967 0.00071668405 0.00069504283 0.00052125484    3759.0631 
 1180000      1190000    301.65378    427.73238   -167.18053    79.990269     297.6647 0.00071257734 0.00069233877 0.00051812583    3754.1415 
 1185000      1195000    298.63246    282.45014    213.32453   -405.04743    413.48149 0.00071046319 0.00069353859 0.00052131505    3749.2673 
 1190000      1200000    301.61659    99.771566    150.48669    48.110941    121.00082  0.000712187 0.00070370651 0.00051994175    3744.3245 
 1195000      1205000    299.42085    136.47752   -206.00686   -419.13526   -159.75712 0.00070727236 0.00069982642 0.00052433675    3739.4014 
 1200000      1210000    301.99273    599.91193    29.621856    529.74405  -0.65588285 0.00070593819 0.00069608086   0.00052175    3734.4787 
 1205000      1215000    305.22885     203.5655   -377.06816    129.08108    371.68282 0.00070513452 0.00069216034 0.00052263171    3729.5426 
 1210000      1220000    306.90275   -117.28907    422.50226    -56.49441   -127.62632 0.0007042689 0.00068856569 0.00051269937    3724.6205 
 1215000      1225000    300.57065     109.8793    419.38579    169.33844    67.062277 0.00072737153 0.00068893798 0.00051321709    3719.6932 
 1220000      1230000    298.16785    113.54727    631.44926   -258.20373   -61.610169 0.00072883418 0.00068370397 0.00050978424    3714.7586 
 1225000      1235000    298.85203    388.88129    100.23448   -68.740288   -11.533828 0.00073804124 0.00068127182 0.00051021726    3709.7971 
 1230000      1240000     300.4055    -148.4314   -363.48324    389.90071    -373.2422 0.00073423249 0.00068297894 0.00050863362    3704.8696 
 1235000      1245000    305.36058    362.89797   -395.71046    170.79726   -49.560307 0.00073160501 0.00068143778 0.0005092744    3699.9513 
 1240000      1250000    299.25942    164.60287    258.64698   -477.54844    331.37912 0.00072937998 0.00068352863 0.00051691884     3695.041 
 1245000      1255000    299.76539   -122.41034    221.21746   -118.72991   -203.44579 0.00072956661 0.00067959185 0.00051604712    3690.1028 
 1250000      1260000    301.22899   -9.8441437     286.6433    258.24088   -20.655422 0.00072442512 0.00067789941 0.00052117669    3685.1733 
 1255000      1265000    294.22688    37.524507    174.11342   -348.10512    45.448466 0.00071861735 0.00067511783 0.00052010225    3680.3134 
 1260000      1270000    301.43388    385.36381   -113.45887    35.376225   -447.68744 0.0007154561 0.00068160439 0.00051747009     3675.411 
 1265000      1275000    303.90616    744.89196   -68.123474   -308.55576    233.51398 0.00071489798 0.00068169759 0.00051461809    3670.4934 
 1270000      1280000    301.15131   -158.42274    28.755343    -280.5151    25.764407 0.00071333432 0.00068541224 0.00052448425      3665.61 
 1275000      1285000    301.26783   -259.95399   -516.18522   -254.90137     176.2153 0.00071171454 0.00068365431 0.00052368289    3660.6892 
 1280000      1290000     296.6939    181.53566   -493.86343    604.77255   -231.29543 0.00070941164 0.00067974411 0.00052316299    3655.7793 
 1285000      1295000    303.39528    407.28495    355.99342    254.22545   -52.760923 0.0007106863 0.0006756451 0.00051938361    3650.8839 
 1290000      1300000    304.28245   -208.89913   -41.734757     129.4733    -410.4152 0.00071181094 0.00067789598 0.0005148932    3645.9259 
 1295000      1305000    299.90871    353.07981    197.74611    35.680683    133.82041 0.00070880594 0.0006766883 0.00051854205    3641.0139 
 1300000      1310000    294.86496    542.91724   -93.645686    133.57555    122.44833 0.00070684899 0.00067276468 0.00051636336    3636.0788 
 1305000      1315000     300.8834    54.045332    30.532553   -441.13202   -77.113475 0.00070644695 0.0006710222 0.00051216652    3631.1477 
 1310000      1320000    297.54698    8.3208627   -64.255151   -40.781235   -120.13837 0.00070235344 0.0006710622 0.00051756055    3626.1949 
 1315000      1325000     293.8658    40.490647   -314.11753    316.04729    107.94566 0.00070507143 0.00067151069 0.00051465632    3621.2739 
 1320000      1330000    301.68373   -92.757811     165.2993   -873.92805    40.738912 0.00070410444 0.00067338729 0.00051695691    3616.3689 
 1325000      1335000    297.26344    402.62203   -160.91696    522.46806    15.249983 0.00070128736 0.00067314294 0.00051730455    3611.4584 
 1330000      1340000    300.32182    18.314489    11.491715   -30.447411   -68.341261 0.00070047403 0.00067323256 0.00051514611    3606.5422 
 1335000      1345000    298.23931     176.6925    410.72177   -48.497889   -287.96879 0.00069904585 0.00067915915 0.00051539221    3601.6246 
 1340000      1350000     298.2002    279.50677     128.0496    667.05721   -109.50391 0.00069812544 0.00067605859 0.00051445343    3596.6922 
 1345000      1355000    296.97498    88.485969   -159.69692    148.25029   -107.95944 0.00070060938 0.00067658146 0.00052584596    3591.7505 
 1350000      1360000    304.48647    275.38018    41.861893    402.46181    270.83879 0.00069541078 0.00067410255 0.00052301423    3586.8361 
 1355000      1365000    295.39214   -14.767499    312.69366    240.81362    106.99464 0.00069468468 0.00067470229 0.00053345711    3581.9206 
 1360000      1370000    300.29003    611.21857   -209.75878   -228.08907   -214.88955 0.00069616584 0.00067204659 0.00052717556    3577.0233 
 1365000      1375000    298.17421    388.86745   -40.945091   -85.586979   -35.895357 0.00069320653 0.00066859436 0.00052555409     3572.091 
 1370000      1380000    308.84448     555.7767   -79.736103   -106.49991   -449.75272 0.00068973962 0.00066837822 0.00052421318    3567.1751 
 1375000      1385000    300.02675    404.78437    -2.611908     -183.278    41.387403 0.00068618307 0.00067027425 0.0005339702    3562.2682 
 1380000      1390000    302.57654   -168.39366     491.4005   -160.61634    113.04692 0.00068378644 0.00067828508 0.00053665023    3557.3613 
 1385000      1395000    292.63421   -504.11043     68.04859   -351.64833     206.7387 0.00068208899 0.00066985058 0.00053579477    3552.4327 
 1390000      1400000    296.36739   -59.512135    118.28722   -233.17317   -356.86383 0.00068005912 0.00066158138 0.00053928814    3547.5128 
 1395000      1405000    299.69568    473.81086   -540.80955   -120.38592   -567.89091 0.00067912688 0.00065905254 0.00053820788    3542.6361 
 1400000      1410000    300.00489    85.100465   -104.57415    329.26394   -218.51327 0.00067497293 0.00065943997 0.00053834122    3537.7022 
 1405000      1415000    301.02085    141.98269    21.381902   -121.99879     69.05995 0.00067549133 0.00066044816  0.000537299    3532.7732 
 1410000      1420000    296.88682    254.52109    171.64142    338.64943    9.9638617 0.00067694256 0.00065953498 0.00053936345    3527.8586 
 1415000      1425000    297.36301   -310.77989    57.219399   -238.82331    138.83059 0.00067543833 0.00065659791 0.0005376656     3522.932 
 1420000      1430000    297.85158    268.21014    -22.23286    258.91606   -63.069653 0.00067532948 0.0006536912 0.00053613478    3518.0216 
 1425000      1435000     310.5795    286.64634    580.49632   -283.16487   -74.059906 0.00067577669 0.00065073524 0.00053732482     3513.086 
 1430000      1440000    299.59652    857.07699    436.76288    9.2612984   -333.92821 0.00067322863 0.00064813482 0.00053551188     3508.166 
 1435000      1445000     296.4977   -216.59985    140.69995    409.27087   -80.165041 0.00067705968 0.00065049318 0.0005354119     3503.232 
 1440000      1450000    302.85321    78.988437   -221.80436   -255.56304   -332.94835 0.00067554576 0.00065383351 0.00053372314    3498.2961 
 1445000      1455000    299.93329    9.1348049    81.609698    288.84271   -619.75657 0.00067174557 0.00065216592 0.00053167255    3493.3745 
 1450000      1460000    301.61506    365.24714    602.71586    467.96857   -16.481669 0.00066975876 0.00065116092 0.00052946871    3488.4356 
 1455000      1465000    292.25875    46.900786   -274.16047    25.838994    -478.2161 0.00067342472 0.00065225127 0.0005280297    3483.5054 
 1460000      1470000    294.03351    47.316354   -10.370629   -515.09391   -474.67554 0.00066837339 0.0006605854 0.00052734794    3478.5782 
 1465000      1475000    302.74299    84.205692   -308.38995   -69.720715   -112.62622 0.00066646252 0.00065936489 0.00052470374    3473.6635 
 1470000      1480000    300.35677   -200.77595   -132.70096    13.723121     4.614712 0.00066573308 0.0006581555 0.0005298839    3468.7347 
 1475000      1485000     299.3806   -401.43434     382.0484   -485.16075    343.90108 0.00066698449 0.00065719565 0.00054176436    3463.8337 
 1480000      1490000    296.31626    657.41048     244.3607    351.35848    126.42738 0.00066604913 0.00065434731 0.00053679675    3458.9013 
 1485000      1495000    296.86036    691.25894   -474.51656     168.1771    97.747594 0.00066603769 0.00065089757 0.00053606307    3453.9825 
 1490000      1500000    296.75469    210.82691    100.82373    141.79423   -167.62727 0.00066421994 0.0006488626 0.00053662377    3449.0891 
 1495000      1505000     295.8735    137.65424    331.71365    231.60431    130.01126 0.00066323402 0.00064948429 0.00053705194    3444.1728 
 1500000      1510000    290.11715   -521.88969   -148.20227    325.06818    -749.5506 0.00066022988 0.00065409378 0.0005345117    3439.2216 
 1505000      1515000    303.38671   -38.225271   -158.64062    66.585487    388.47115 0.00065930867 0.00066302739 0.00053352893    3434.2878 
 1510000      1520000    300.42774   -263.16785   -63.444817   -223.26186    -295.3698 0.00066040145 0.00066249728 0.00056033237    3429.3671 
 1515000      1525000    302.15021   -147.47432   -13.613705    160.41904    347.00125 0.00065925865 0.00066188125 0.00055442432    3424.4612 
 1520000      1530000    302.26867   -509.42799    -334.7423    304.61524    358.28379 0.0006558775 0.00065896645 0.00055249626    3419.5509 
 1525000      1535000    299.47202    221.72522   -304.34533   -545.58894   -52.461517 0.00065392453 0.00065833307 0.00055112211      3414.63 
 1530000      1540000     301.0841   -245.52396    198.16734    525.16714    115.88804 0.0006547624 0.00065437728 0.00055751751    3409.7189 
 1535000      1545000    302.24294    266.63786    153.51789    16.400315   -216.59054 0.00065236213 0.00066637856 0.00055652808    3404.8017 
 1540000      1550000    309.01669   -163.83762    193.03078   -29.791854   -221.82687 0.00065226975 0.00068259415 0.00055556743    3399.9013 
 1545000      1555000    293.26007    5.5343973   -517.42059    52.304349    164.10992 0.00065076426 0.00067899991 0.00055392886    3394.9887 
 1550000      1560000    294.27164    4.0043297     249.0823   -457.87315    192.68966 0.00065433438 0.00069484944 0.00055346724    3390.0752 
 1555000      1565000    304.66908    332.45637    570.76194    -275.9977    -150.7118 0.00065043173 0.00070879462 0.00055994305    3385.1592 
 1560000      1570000    301.53253     205.5012    -161.7821    505.31735   -110.52802 0.0006488553 0.00070724978 0.00056657496    3380.2359 
 1565000      1575000     302.0562    111.33946    -672.3093    268.45035   -472.50672 0.00064759329 0.00070339775 0.00057186881    3375.3185 
 1570000      1580000     299.9685    265.58771    490.14209     10.57946   -394.07854 0.00065195574 0.00070102592 0.00057034614    3370.4105 
 1575000      1585000    301.28689   -94.583988     -238.364   -507.51002   -155.57296 0.00066175354 0.0006985204 0.00056879454    3365.4936 
 1580000      1590000    296.87489     391.9034   -109.76542   -347.78538   -350.26321 0.00066012455 0.00069277341 0.00056617402    3360.5808 
 1585000      1595000    299.86981    70.842715   -207.06627   -118.52671    377.61658 0.00065805455 0.00069053252 0.00056505064    3355.6568 
 1590000      1600000      298.613   -211.80482    225.03498    117.40136    456.15065 0.00065617003 0.00068791239 0.00056364433    3350.7059 
 1595000      1605000    307.74553     36.45883    87.192285     4.224243   -501.86939 0.00065682116 0.00068595736 0.0005654388    3345.7901 
 1600000      1610000    294.85181    4.2138546    275.75714   -198.64543   -623.86896 0.00065118035 0.0006828844 0.00056503769    3340.8793 
 1605000      1615000    295.31957    201.06819   -249.02378    234.43634    59.385231 0.00065165919 0.00068586985 0.00056157319    3335.9663 
 1610000      1620000     298.3192   -24.783258    409.39943   -98.336931    174.13147 0.00065823482 0.00068356774 0.00056384037    3331.0523 
 1615000      1625000    298.81841    50.835032    112.02069    231.51381    191.23173 0.00066362287 0.00068433911 0.00056082096    3326.1249 
 1620000      1630000    301.88635   -24.086656   -501.97325    234.86593   -1.2499652 0.00066479031 0.00068128583 0.00055992725    3321.1966 
 1625000      1635000    299.30883    -408.9314   -51.486442   -406.48214   -42.086394 0.00066714777 0.00067978387 0.0005593236    3316.2812 
 1630000      1640000    302.07708    224.77177   -164.77912    190.64032    21.682213 0.0006598513 0.00067742429 0.00055752033     3311.383 
 1635000      1645000    303.95993   -159.02093    -395.0002     185.7163    -128.1748 0.00065965496 0.0006724021 0.00055673539    3306.4713 
 1640000      1650000    303.06501    191.48877   -29.831328   -260.96254    92.652541 0.00065864821 0.00066448959 0.00055529784    3301.5469 
 1645000      1655000    298.35429   -398.19738    251.97344    11.971159   -8.6046568 0.00065855355 0.00066328492 0.00055428681    3296.6085 
 1650000      1660000    295.00071   -206.39628    -182.5482    342.46156    -261.5361 0.00065802073 0.00066340841 0.00055520472    3291.7132 
 1655000      1665000    295.82407    327.25742    254.14068   -175.69889   -124.04075 0.00065546609 0.00066109138 0.00055937878    3286.7957 
 1660000      1670000    302.53323    446.31369   -225.91844   -411.44178    157.69254 0.00065546597 0.00065964774 0.00055800905    3281.9015 
 1665000      1675000    301.10001    29.132482    164.72028   -177.84811    67.687834 0.00065576461 0.00065934204 0.00055702194    3276.9734 
 1670000      1680000    297.26675    -90.89579     236.8748   -72.975101   -189.63169 0.00065328577 0.00065756833 0.00055573937    3272.0628 
 1675000      1685000    295.77624    170.06777    88.292093    40.013329    -235.2651 0.00065082721 0.00065496003 0.00055357047    3267.1518 
 1680000      1690000    300.83162    128.36587    -270.6102    52.132903   -380.92769 0.00064953826 0.00065463741  0.000551761    3262.2289 
 1685000      1695000    299.04396    666.73018    74.691131    27.207784   -237.32535 0.00064989896 0.00065471367  0.000551598    3257.3203 
 1690000      1700000     302.7001    272.04168   -235.13062   -154.61814   -334.55842 0.00064754643 0.00065354344 0.00055257938    3252.3958 
 1695000      1705000     294.9923    487.84688    184.25072    8.7373676   -620.29791 0.00064527128 0.00065097336 0.00055138249     3247.484 
 1700000      1710000    300.84147    553.39177   -289.17658   -108.23706    131.33799 0.00064832928 0.00065003277 0.0005539167    3242.5703 
 1705000      1715000    300.57755    141.91605    389.45115    -51.77872    115.11395 0.0006433837 0.00064850049 0.00055651276    3237.6216 
 1710000      1720000    292.33428    575.62547    297.78146    134.74092   -99.358236 0.0006510842 0.00064635219 0.00055498668    3232.7008 
 1715000      1725000    299.63765   -273.05953    48.531983   -239.31911    495.13814 0.00066196959 0.00064479417 0.00055889641    3227.7663 
 1720000      1730000    299.34978    334.33869   -34.324942   -422.18894    637.04677 0.00066206749 0.00064764305 0.00055992418     3222.859 
 1725000      1735000    297.79009    34.436572   -305.00701    91.768417    1.0275907 0.00066169241 0.00064615222 0.00055671556    3217.9616 
 1730000      1740000    293.42969   -40.557553    100.35325    180.02607   -6.0524252 0.0006600997 0.00064408235 0.00055892116    3213.0593 
 1735000      1745000    304.39613   -429.67582    279.75451   -60.175949    62.152336  0.000658889 0.00064381732 0.00056096632    3208.1511 
 1740000      1750000    300.41539    -133.2963    559.11129    145.32472   -39.912759 0.00065775546 0.00065008605  0.000566435    3203.2304 
 1745000      1755000    300.09766   -4.5662816    46.884108   -820.05495    216.03697 0.00065568287 0.00064883925 0.00056140185    3198.3353 
 1750000      1760000    298.40703    -63.90868    211.48635   -431.42743    51.109051 0.00065872731 0.00065058593  0.000559046    3193.4172 
 1755000      1765000     300.6968   -284.86598   -376.93587    131.63968   -6.9802969 0.00065714982 0.00065402443 0.0005599781    3188.5015 
 1760000      1770000    296.55855    424.99369   -42.082786   -280.32637   -40.219016 0.00065688415  0.000652892 0.00055829781    3183.5953 
 1765000      1775000    304.58022   -197.94308    197.62316   -385.84175    -16.11012 0.00065532662 0.00065083505 0.00055675129    3178.6624 
 1770000      1780000    298.58136    82.779919   -126.61028    35.499854   -669.17628 0.00065445546 0.00064857415 0.00055529599    3173.7608 
 1775000      1785000    303.82536    118.79101    495.74697    7.9201643    323.78869 0.00065340148 0.00064720821 0.00055853424    3168.8352 
 1780000      1790000    300.35026    -101.1105    355.51983    142.34762   -579.87736 0.00065229649 0.00064513235 0.00055691417    3163.9135 
 1785000      1795000    306.08266    -33.78677    171.80888   -520.49134   -682.98385 0.00065183372 0.00064808349 0.00055797996     3159.012 
 1790000      1800000    289.46036   -26.967016    108.99554   -350.36773    311.25062 0.00065447129 0.00064850206 0.00056152403    3154.1205 
 1795000      1805000    301.57266    47.360619    27.224369    307.30805    244.92265 0.0006601276 0.0006464197 0.00056655193    3149.2057 
 1800000      1810000    306.30825    435.27651    14.852767   -186.84633    54.601469 0.00065807123 0.0006452894 0.00056311209    3144.2998 
 1805000      1815000    294.23026    398.59781   -178.89062    67.128787   -184.69803 0.00066667825 0.00064302303 0.0005627456    3139.3859 
 1810000      1820000    298.26004    251.83713    33.722526    29.945487    336.51574 0.00067304293 0.00064158269 0.00057511569    3134.4763 
 1815000      1825000    307.21049    54.032278   -6.1720994   -235.22359   -35.668928 0.00067231413 0.00064540979 0.00057135891    3129.5609 
 1820000      1830000    304.47774     1.287763   -131.05639    53.486465    125.46717 0.00067203773 0.00064421304 0.00057084366    3124.6422 
 1825000      1835000    307.33926    334.57624    155.81724    29.693689    -32.29846 0.00066874324 0.00064243927 0.00057369631    3119.7185 
 1830000      1840000    297.63377   -509.65667    72.223884   -234.14976    61.363384 0.00067796092 0.00064788803 0.00057325542    3114.8033 
 1835000      1845000    298.28609    693.11041    213.04025   -33.919943   -152.86959 0.00068550892 0.00065299053 0.00057362318    3109.8812 
 1840000      1850000    300.25747    -433.4318   -584.99195    503.02451    -247.1692 0.0006869515 0.00065309665 0.00057680489    3104.9649 
 1845000      1855000    303.40932    141.01114    126.14994   -159.87268   -5.0905708 0.00068673239 0.00064995312 0.00057998096    3100.0598 
 1850000      1860000    304.70117   -265.67773   -166.88127    245.57743    72.609666 0.00068668606 0.00064856927 0.00057864582    3095.1346 
 1855000      1865000    306.97434    66.041763    161.72315   -47.345472   -181.73624 0.00068406513 0.0006484341 0.00058409452    3090.2152 
 1860000      1870000    300.68243    119.60949    -287.9076   -296.46379   -91.891356 0.00069127454 0.00064638986 0.00058475339      3085.29 
 1865000      1875000    298.89611    527.39853     69.02137   -93.393416   -257.81462 0.00069163072 0.0006549327 0.00058321906    3080.3781 
 1870000      1880000    300.02109   -63.787228    305.38813    75.325628   -133.62002 0.00069740853 0.00065390475 0.00058111684    3075.4527 
 1875000      1885000    296.60102    21.549847   -337.40522     145.6089   -175.27287 0.00069606235 0.00065251531 0.00058712021    3070.5438 
 1880000      1890000    301.96165    145.43374    321.46327   -171.57472    211.16173 0.00069417456 0.00065163333 0.00058685606    3065.6252 
 1885000      1895000    298.97025   -92.162315    35.082205    102.69204    264.01029 0.00069563904 0.0006512895 0.00058468951    3060.7021 
 1890000      1900000    308.20684    250.60584    10.562614     164.3316    56.161464 0.00069303781 0.00064984921 0.0005879802    3055.7829 
 1895000      1905000    295.29276   -145.84154   -574.25265    685.39251    -694.0933 0.00069038811 0.0006623361 0.00058718423    3050.8617 
 1900000      1910000    295.77696   -18.608644    103.12584    403.72014    249.23763 0.00068937238 0.00065707624 0.00059542906    3045.9384 
 1905000      1915000    295.02234   -103.79193    67.427463   -554.54634    31.844211 0.00068837886 0.00065427468 0.0005939908    3041.0167 
 1910000      1920000    299.21687    316.76101   -185.49041   -153.14135    42.607073 0.00068879205 0.00065645353 0.00059264765    3036.1018 
 1915000      1925000    305.86107   -354.39769    233.66846   -183.55618     214.9896 0.00068546774 0.00065571814 0.00059568693    3031.1771 
 1920000      1930000    296.07458   -589.09362   -554.03148   -375.21292    388.44564 0.0006840185 0.00065596794 0.00059018769    3026.2711 
 1925000      1935000    303.51885    396.32827   -113.54148    366.19332    610.07112 0.00068281064 0.00066281723 0.00058946066    3021.3716 
 1930000      1940000    295.84657    47.970737   -429.86495   -57.955218    73.144414 0.00068233964 0.00066166761 0.00058831294    3016.4733 
 1935000      1945000    298.72042     292.6597   -429.81222    -143.9432    13.077721 0.00068240303 0.00065855189 0.00058716237    3011.5639 
 1940000      1950000    292.32701   -32.780787   -21.231318   -504.80136    -16.17875 0.00068163774 0.00065669775 0.00059311673     3006.653 
 1945000      1955000     302.3822    222.02706   -110.59527    363.48284   -685.43686 0.00068049619 0.00065825036 0.00059195042    3001.7537 
 1950000      1960000    308.75615    402.17941    346.40659   -421.90549   -512.12389 0.00068334647 0.00065770306 0.00059275983    2996.8482 
 1955000      1965000     307.6454    230.53948   -452.43989   -183.23782    618.14934 0.00068055986 0.00065618189 0.00059042412    2991.9355 
 1960000      1970000    302.06949   -673.92835   -360.24922   -369.87184     66.22954 0.00067962629 0.0006550077 0.00059008265    2987.0202 
 1965000      1975000    305.94228     116.0432   -327.31098    150.85775    7.4990255 0.00067809728 0.00065626874 0.00058780355    2982.1009 
 1970000      1980000     300.8192    399.72682    20.425319    137.28111   -408.01907 0.0006798876 0.0006576484 0.00058773856    2977.1722 
 1975000      1985000    294.56267    627.69674    64.264652    407.43768    180.53585 0.00067732633 0.00065502648 0.00058825159    2972.2562 
 1980000      1990000    291.80173    35.939616   -84.172845   -470.11884   -234.37941 0.00067763849 0.00065587702 0.00058726194    2967.3584 
 1985000      1995000    299.66207    530.33602   -362.87765   -390.64332    462.74824 0.00067548156 0.00065571235 0.00058633821    2962.4323 
 1990000      2000000    310.96743     391.3651   -100.80043    413.63418    60.019853 0.00067461257 0.00065426516 0.00058539381    2957.5188 
 1995000      2005000    303.73708    46.228838    133.79518   -355.20611    323.12933 0.00068199756 0.00066601635 0.00058456816    2952.5992 
 2000000      2010000    307.97728   -257.55464    150.98345   -187.18081    -180.4531 0.00069198573 0.00066130866 0.00059388927    2947.6939 
 2005000      2015000    306.28637    425.89512   -151.90182   -241.79678    -125.5785 0.00068988672 0.00066264295 0.00059365828    2942.7841 
 2010000      2020000    294.68947    440.01241    12.751107   -493.98073    31.419771 0.00068855419 0.00066478851 0.00059053119    2937.8753 
 2015000      2025000    301.31169    350.96299   -79.415494   -483.97769    315.58643 0.00068742661 0.00066428728 0.0005908983    2932.9362 
 2020000      2030000    295.39146    306.95622    -311.3539   -417.70067   -204.23494 0.0006897631 0.0006695209 0.00059017548    2928.0091 
 2025000      2035000    303.67588    411.81307   -103.31816    58.659046   -167.35704 0.00069185889 0.00066822822 0.00058898529    2923.0997 
 2030000      2040000    298.55261   -57.812431    3.3925242   -222.34059    44.076918 0.00070206554 0.00066719269 0.00059020104    2918.1981 
 2035000      2045000    303.41079    520.17584    188.38363    109.49261    -589.2267 0.00070331871 0.00066618109 0.00058722353    2913.2903 
 2040000      2050000     302.5161    243.18879    301.86437    109.74822    67.652261 0.0007023869 0.00066618662 0.00058577837    2908.3678 
 2045000      2055000    308.45996    45.541039    19.246762    206.93661   -373.73485 0.00070109067 0.00066584585 0.00059261632    2903.4501 
 2050000      2060000    304.79029   -103.04951    254.04195   -218.04316    -56.28331 0.00069920107 0.00066800253 0.00059429195    2898.5261 
 2055000      2065000    298.59338    -125.9669    95.224864   -109.60189    24.291952 0.00069819391 0.00066668893 0.00059342788    2893.6178 
 2060000      2070000    298.07054    229.32307    31.564433   -28.051011   -570.94989 0.00069961699 0.00066535158 0.0005930348    2888.7134 
 2065000      2075000    301.61012    400.26765   -581.84391   -128.82933   -44.821024 0.00069953747 0.00067357104 0.00059419026    2883.7887 
 2070000      2080000    296.22736    380.01933   -604.68977   -73.310035   -310.61969 0.00070768153 0.00067647705 0.00059647805    2878.8621 
 2075000      2085000    301.85603     306.3626   -41.963107   -40.579461     392.8483 0.00070575009 0.00067475077 0.00059598445    2873.9564 
 2080000      2090000    302.52399   -145.48048    198.15534   -48.442723    18.316811 0.00070406464 0.00068085463 0.00059446268    2869.0484 
 2085000      2095000    304.04655    392.01928    119.14861   -97.841192   -61.995669 0.00070421136 0.00067854451 0.00059419148    2864.1344 
 2090000      2100000     298.7796   -30.401809    170.30062   -68.470177   -176.24001 0.00070313477 0.00067505702 0.00059223283    2859.2176 
 2095000      2105000     300.8535    389.59434   -392.76733     214.9272    86.404205 0.00070271025 0.00067171977 0.00059149378    2854.3029 
 2100000      2110000    298.38201    229.85127    355.62113   -26.680696    249.43731 0.00070229528 0.00066618086 0.00059262751    2849.3821 
 2105000      2115000    302.18676   -196.76879   -30.787925    -160.9878   -140.37732 0.00069990479 0.00066727289 0.0005887556    2844.4686 
 2110000      2120000    303.06451    291.64968    434.27555   -444.20086    -333.2019 0.0006975665 0.00066619665 0.00058791894    2839.5496 
 2115000      2125000    304.75918    104.19404   -204.75169    353.73423   -453.51917 0.00069522514 0.00066883299 0.00058603132    2834.6393 
 2120000      2130000    297.10011    118.46069    -94.50169   -359.99546     182.5996 0.00069343945 0.00066926188 0.00058522106    2829.7264 
 2125000      2135000    306.42445    298.10835   -264.22168    -65.66248   -34.936392 0.00069200832 0.00066703362 0.00058555792    2824.8162 
 2130000      2140000    296.41236    208.25901   -92.360247    -206.3588    73.337033 0.00069068589 0.00066621703 0.00058715319    2819.8973 
 2135000      2145000    298.28631   -261.71749   -100.91673   0.41302821   -182.27987 0.00069026393 0.00066533628 0.00058444414    2814.9781 
 2140000      2150000    303.71402   -340.89719   -174.89044    -290.7728   -138.49009 0.00068678233 0.00066395698 0.00058911878    2810.0541 
 2145000      2155000    300.96063    580.24598   -190.28172    121.69035   -1.9051041 0.00068468484 0.00066236471 0.00058988353    2805.1288 
 2150000      2160000    298.09796    45.370038    48.409703   -370.70718    143.70177 0.00069044469 0.00066317437 0.00059258499    2800.2051 
 2155000      2165000    294.28983    333.56508   -199.89976    134.98214   -194.20496 0.00069159866 0.00066190651 0.00059349926    2795.2882 
 2160000      2170000    298.38821    139.72931    530.82066   -409.95675    94.873419  0.000694685 0.0006609631 0.00059162307    2790.3769 
 2165000      2175000    300.35784    34.478349    432.08065     285.1288   -144.34893 0.00069185574 0.00066110648 0.00059455854    2785.4565 
 2170000      2180000    298.42672   -266.59809   -138.19066     7.746217   -341.21135 0.00069289972 0.00066018297 0.00059330363     2780.529 
 2175000      2185000    295.80331    442.51656     285.4271    11.585651    280.73372 0.00069216818 0.00065967065 0.00059232558    2775.6042 
 2180000      2190000       304.31    -350.7952    23.570744   -26.550565   -552.98385 0.00069016678 0.00065778196 0.00059392638    2770.6836 
 2185000      2195000    298.49871    426.44789   -264.66204   -32.187778   -279.90853 0.00068958406 0.00065755026 0.00059156151    2765.7788 
 2190000      2200000    299.94688    573.98333    122.51035   -68.157763   -156.25018 0.00069002809 0.00065661339 0.00059421585    2760.8715 
 2195000      2205000    293.50064    591.99591   -273.38784   -744.63852    517.67031 0.0006891817 0.00065568058 0.00059065775    2755.9688 
 2200000      2210000    301.10501     482.3053    402.29831    61.933783    203.87367 0.00068702923 0.00065392791 0.00059605504    2751.0517 
 2205000      2215000     304.2301     261.9994   -228.12141   -163.85299    187.29175 0.00068737895 0.00065245589 0.00059553349    2746.1487 
 2210000      2220000    301.45752     218.0881    108.11687   -421.32803     463.8614 0.00069238428 0.00065262991 0.00059766474    2741.2217 
 2215000      2225000    298.16534   -147.35329   -145.64569   -134.51208   -362.05398 0.00069267153 0.00065229733 0.00059634962    2736.3002 
 2220000      2230000     296.4928   -20.212483   -68.204453   -41.942815   -159.55198 0.00069207073 0.00065765014 0.00059527373    2731.3832 
 2225000      2235000     304.6813   -155.23313    150.54604    284.72121     49.45124 0.00069178929 0.00065290615 0.00059420333    2726.4744 
 2230000      2240000    300.07264   -131.34713     130.6138    277.14971    616.61061 0.00069018493 0.00065160053 0.00059312029    2721.5596 
 2235000      2245000    298.03423    256.01495    164.32907    351.57048    286.28421 0.00068857594 0.00065057436 0.00059081026    2716.6474 
 2240000      2250000    302.56937    -28.16604    104.82894    142.57403   -132.24909 0.00068704775 0.00065149342 0.00059035497    2711.7522 
 2245000      2255000    298.69027    60.948526    127.80723    682.11241   -39.110961 0.00068596271 0.00065113247 0.00059113782    2706.8414 
 2250000      2260000    295.67926   -10.864576    93.945233    329.88575    44.246091 0.00068420812 0.00065182068 0.00059017651    2701.9293 
 2255000      2265000    302.56802    797.08256   -152.36724   -585.68222    198.93485 0.00068773281 0.00065699467 0.00058776266     2697.016 
 2260000      2270000    303.21734    366.96638   -165.20765   -39.554485    331.61419 0.0006850314 0.00065925656 0.00058676698    2692.1011 
 2265000      2275000    291.61056    177.62527   -250.19555   -492.53003   -339.07709 0.00068392528 0.00065763545 0.00058782262    2687.1771 
 2270000      2280000    300.28527    534.53779   -477.14158    199.49962   -381.62638 0.00068635559 0.00065630479 0.00058757337     2682.257 
 2275000      2285000    297.29452    308.91148    213.32648   -140.29704    130.08822 0.00068846397 0.00065573552 0.00058538438    2677.3388 
 2280000      2290000    303.77131    497.63946    83.851919    180.89358   -44.443044 0.00069706348 0.00065792235 0.00058847773    2672.4357 
 2285000      2295000    299.69842    51.492889   -78.154734     206.8985   -18.241661 0.00069438116 0.00065535152 0.00058979895    2667.5122 
 2290000      2300000    295.03187    455.95389   -277.08743    -234.2617    168.51382 0.00069251443 0.00065472746 0.00059409248    2662.5947 
 2295000      2305000     298.6586     50.29326   -170.97729    542.42591    659.27263 0.00069313579 0.00065359546 0.00058812912    2657.6723 
 2300000      2310000    291.25446    261.36745    469.68756    297.69175   -244.08596 0.00069152632 0.00065241544 0.00058868803    2652.7567 
 2305000      2315000    300.39996    64.645004   -464.40107    135.19851    210.50037 0.00069367898 0.00065079547 0.00059002011    2647.8367 
 2310000      2320000    301.29267    50.351117   -425.34484   -263.74597   -345.18442 0.00069317052 0.00064885563 0.00058897263    2642.9285 
 2315000      2325000    300.78814    932.53871   -564.69653    587.85845   -243.49012 0.00069192725 0.00064967658 0.00059053764    2638.0161 
 2320000      2330000    303.86122    443.61279    48.958317    294.26395     477.8698 0.00069945259 0.00065232663 0.00058919712    2633.0936 
 2325000      2335000    300.98076    89.757593   -22.519651   -75.961258   -161.41499 0.00069811086 0.00064962106 0.00059078984    2628.1859 
 2330000      2340000    300.57991   -209.73777    213.79203   -150.23933    297.19905 0.00069743266 0.00064836593 0.00058934289    2623.2668 
 2335000      2345000    302.98511    328.10731    150.44902   -165.18379   -505.05891 0.00069430779 0.0006464964 0.00058765961    2618.3566 
 2340000      2350000    303.47507     427.3466   -83.820628    44.742614    148.89137 0.00069297252 0.00064483627 0.00058621353    2613.4421 
 2345000      2355000    300.26867    97.348732   -204.80095    59.955763   -90.493529 0.00069916882 0.0006446823 0.00058866998    2608.5321 
 2350000      2360000    304.37321   -136.06302   -238.87595   -208.93755   -82.506255 0.00069424977 0.00064567627 0.00058711458    2603.6171 
 2355000      2365000    299.57045    276.78636   -184.75844   -390.88112    487.23571 0.00069273305 0.00065314466 0.00058660598    2598.6938 
 2360000      2370000     293.0701   -338.77004   -285.63921   -146.90216   -236.02524 0.00069457441 0.00065081907 0.00058304102    2593.7831 
 2365000      2375000    302.60578    487.14186    233.93023    102.17158   -30.805347 0.00069254957 0.0006490974  0.000583467    2588.8842 
 2370000      2380000    300.03534   -194.98385    16.415368    54.618928   -556.24024 0.00069308566 0.00065237653 0.00058851636     2583.971 
 2375000      2385000    300.11664    378.91643    174.72444    331.33009    103.16517 0.00069291832 0.00065363738 0.00058817527    2579.0515 
 2380000      2390000    300.92466   -251.49785   -192.83906    -100.8333    245.91526 0.00069095155 0.00065167147 0.00058682265    2574.1362 
 2385000      2395000    309.77294   -149.64128   -99.072485    52.363492     362.7847 0.00069152062 0.00065047697 0.00058849962    2569.2143 
 2390000      2400000    304.12233    311.15646   -429.49704    406.84285      29.2297 0.00069233838 0.00064962961 0.00058805079    2564.2969 
 2395000      2405000    296.01303   -231.21477   -214.67515     205.2643    259.62304 0.00069346248 0.00065139676 0.00059519226    2559.3825 
 2400000      2410000    291.79181    436.06151    212.36369    102.95146    682.76494 0.00069100741 0.00064751346 0.00060119508    2554.4796 
 2405000      2415000    298.32961    51.673536   -170.52027   -182.86692   -356.62364 0.00069130743 0.00064615781 0.00060050282    2549.5664 
 2410000      2420000    302.83306   -300.90136    221.44052    176.85896   -189.68147 0.00069007222 0.00064453118 0.00060081318    2544.6561 
 2415000      2425000     301.3982   -101.31002    35.072052   -934.76438    -303.4678 0.00068961107 0.00064901445 0.00060024768    2539.7439 
 2420000      2430000    299.32453    78.504345    207.73976   -233.69777   -346.76875 0.00068814425 0.00064664965 0.00060125702    2534.8291 
 2425000      2435000    305.52777    360.31607    176.40454    32.687284     63.42239 0.00068661637 0.00064565126 0.00060011666    2529.9144 
 2430000      2440000    302.39513   -289.18304   -115.55184    141.44307   -211.45346 0.00068586031 0.00064448534 0.00059896384     2525.008 
 2435000      2445000    297.44281    83.819029    300.65655   -116.30751    468.45897 0.00068594544 0.0006428674 0.00059734444    2520.0972 
 2440000      2450000    306.49475   -84.815514   -530.95768    343.46739    59.975841 0.00069278668 0.00064368042 0.00059609172    2515.1877 
 2445000      2455000    302.12467    153.22697     91.67761   -98.922405    103.55744 0.00069438115 0.00064298591 0.00059514581    2510.2761 
 2450000      2460000    301.05043     705.5612   -294.23509    343.79895    308.03801 0.0006933248 0.00064232241 0.0005970815    2505.3486 
 2455000      2465000    307.50733   -94.538763    244.81226   -556.26952    330.70056 0.00069184314 0.00064178344 0.00059701228    2500.4276 
 2460000      2470000    301.23646   -86.133804    423.57021    559.92557    545.34498 0.00069129317 0.00064113274  0.000600485    2495.5226 
 2465000      2475000    296.81054    117.10878    632.27261    7.0412806     139.0519 0.00069254243 0.00063955473 0.00060467031    2490.6018 
 2470000      2480000    299.37901   -398.48253   -367.52786   -295.77559   -556.65763 0.00069010436 0.00063741287 0.00060528457    2485.6867 
 2475000      2485000    297.69742   -260.10636   -176.04927   -306.78197    94.363932 0.00068923081 0.00063906455 0.00060846143    2480.7803 
 2480000      2490000    303.41425   -148.74021   -129.33914   -94.490472    494.41373 0.00068923142 0.00063746954 0.00061093513    2475.8594 
 2485000      2495000    306.74607   -167.07395    10.121043   -346.51709   -220.10889 0.00068681825 0.00063555862 0.00062675127    2470.9406 
 2490000      2500000    295.57276   -150.98658   -268.58463    148.50767    481.68964 0.00069510818 0.00063678272 0.00062984962     2466.019 
 2495000      2505000    305.63049    210.04037    326.71748    406.36966   -148.38872 0.00069641756 0.00064237407 0.00062988382    2461.1162 
 2500000      2510000    306.61262   -24.923091   -149.16559   -343.60728   -270.12199   0.00069411  0.000641115 0.00062802072    2456.2063 
 2505000      2515000    306.95536    392.51746   -161.62531    -301.5035   -131.13912 0.00069355454 0.00063964343 0.0006276971    2451.2803 
 2510000      2520000    301.58163   -298.76784   -42.465813   -214.08193    159.56211 0.0006926858 0.00063736945 0.0006273621    2446.3578 
 2515000      2525000    302.91205    489.34781   -173.81153    180.18718   -355.67288 0.00069671396 0.00063477039 0.00062684001    2441.4445 
 2520000      2530000    296.40555    444.21219   -270.52806    245.42083    334.79084 0.00069458231 0.00063396263 0.00062581379    2436.5256 
 2525000      2535000    297.71949    476.18273    -128.3159    248.53377    108.29625 0.00070135767 0.00064027353 0.00062452065    2431.6144 
 2530000      2540000    302.76256     355.2942    -69.37536   -292.59694    -3.360173 0.00069958167 0.00064017507 0.00062353762     2426.703 
 2535000      2545000    304.91934    597.17055    97.934188    195.99027   -13.185645 0.00071349194 0.00063855985 0.00062385048    2421.7944 
 2540000      2550000    297.88406    159.38223   -3.0509836    3.5429564   -152.87828 0.00071207879 0.00063825739 0.00062183337    2416.8786 
 2545000      2555000    297.10163   -99.176893   -197.64056    -11.27085   -272.99795 0.00071221402 0.00063769148 0.00062084723    2411.9604 
 2550000      2560000    294.39116    301.31772    629.49688    79.043565    13.204056 0.00071533977 0.00063623626 0.00062279119    2407.0358 
 2555000      2565000    304.44858     66.56228     238.3751    617.72985   -181.17276 0.00071437146 0.00063449059 0.00062193215    2402.1177 
 2560000      2570000    301.31408    288.90339   -516.69058    193.80834    311.11026 0.00071082923 0.00063480994 0.00062261996    2397.2006 
 2565000      2575000    292.67658    61.666207    37.416963    7.8721676   -358.03366 0.00070941006 0.00063207857 0.00062206462    2392.2928 
 2570000      2580000    303.40531   -201.49194    120.67138    250.29836   -24.170103 0.00070834865 0.00063129663 0.00062125759    2387.3748 
 2575000      2585000    300.68456    183.19245   -85.822015   -55.588095    116.42163 0.00070760843 0.00063132574 0.00061859254    2382.4582 
 2580000      2590000    305.28245     138.2898   -281.00597    -58.65069    245.14092 0.00070655925 0.00062917377 0.00061813551     2377.552 
 2585000      2595000    299.61847   -425.02647    26.291301    16.350374    32.270939 0.00070537947 0.00063045541 0.00061599558     2372.638 
 2590000      2600000    297.47544    189.14868   -17.002004    358.81061   -465.87888 0.00070460388 0.00062931269 0.00061518949    2367.7301 
 2595000      2605000    295.90267   -20.157954    329.58634    128.20463   -298.47224 0.0007031929 0.00062605444 0.00061355523    2362.8214 
 2600000      2610000    303.73028    36.952851    34.127875   -198.07309    254.71663 0.00070386304 0.00062425827 0.00061288103    2357.9115 
 2605000      2615000    298.60466    116.30025    157.77231   -54.596084   -184.13724 0.00071562757 0.00062226968 0.00061134283     2353.002 
 2610000      2620000    301.79283    89.739499    146.00577   -161.92768    136.93238 0.00071461889 0.00062153278 0.00060997434    2348.0811 
 2615000      2625000    299.76332    77.238867     150.2849     12.91464    57.072611 0.00071448244 0.0006215945 0.00060889123    2343.1619 
 2620000      2630000     295.7142    762.69621   -59.079779   -253.81979    296.36763 0.00071359028 0.0006190539 0.00060877716    2338.2535 
 2625000      2635000    308.33235   -501.06083   -186.97028    168.27498    22.227142 0.00071516652 0.00061636198 0.00060864985    2333.3404 
 2630000      2640000    302.68852     76.01128    204.99635    67.181277   -161.00822 0.00071364056 0.00061610371 0.0006081874    2328.4245 
 2635000      2645000    298.09933   -791.68624    175.61239    49.782328    21.271236 0.00071293308 0.00061512415 0.00060818868    2323.5137 
 2640000      2650000    299.99469    448.67543   -453.36923    32.333639     358.4634 0.00071142318 0.00061391685 0.00060819836    2318.6094 
 2645000      2655000    292.52371    10.986581    -7.785274    221.62233    229.59586 0.00070912451 0.00061553469  0.000607946    2313.7217 
 2650000      2660000    304.32825    440.27403     270.7038   -85.218505    179.20455 0.00071144534 0.00062035311 0.00060597185    2308.8089 
 2655000      2665000    302.84765   -102.14342    12.180251    -245.6975    383.97325 0.00071064143 0.00061933938 0.00060574954    2303.8905 
 2660000      2670000    307.92786   -157.39605    258.32931    147.85417    -155.9722 0.00070912569 0.00061960314 0.00060558458    2298.9738 
 2665000      2675000    306.10248   -17.919822   -190.91706    17.425053   -141.03589 0.00070985751 0.00061829367 0.00060480742    2294.0678 
 2670000      2680000    298.75439    235.56812    301.18377     354.2357     524.6493 0.00070740828 0.00061792987 0.00060468535     2289.158 
 2675000      2685000    300.76403   -24.989277   -250.44205    -138.7229    85.359919 0.00070583728 0.00061817228 0.00060423852    2284.2507 
 2680000      2690000    300.48873    150.05708    142.76806    23.410023    291.90839 0.00070513451 0.00061775098 0.00060368574    2279.3412 
 2685000      2695000    298.11784   -214.76219   -27.956317   -443.57224    62.549981 0.00070478341 0.00061644828 0.00060332543    2274.4226 
 2690000      2700000    299.76315    1086.9428   -583.59274   -38.216707    65.655586 0.0007043943 0.00061766716 0.00060312836    2269.5099 
 2695000      2705000     306.7525    638.56754    -23.94532   -570.12975    454.62706 0.00070343328 0.00061939014 0.00060104594    2264.5917 
 2700000      2710000    300.82889   -91.741087    127.79333   -184.86054    38.211953 0.00070179216 0.00061830177 0.00060048269    2259.6893 
 2705000      2715000    305.04549    565.57691    100.06912   -397.92832    50.217354 0.00070081853 0.00061881839 0.00060197251    2254.7861 
 2710000      2720000    299.44588    257.37099   -379.54083    127.99305   -235.86305 0.00069965994 0.00061771782 0.00060095939     2249.869 
 2715000      2725000    296.90249   -25.946453    -8.302362   -119.65292   -323.56617 0.00069901494 0.00061672438 0.00060082983    2244.9583 
 2720000      2730000    290.74909   -396.78565    310.79101   -249.57543    301.11791 0.00069778538 0.00061910087 0.00060065547    2240.0422 
 2725000      2735000    298.18558   -110.25662   -158.16423    151.43776   -301.86313 0.00069689068 0.0006223032 0.0005992553    2235.1228 
 2730000      2740000    297.38674    187.01345   -43.009217   -46.799287    -16.48447 0.00070018255 0.00062233236 0.00059931741    2230.2095 
 2735000      2745000    297.32406   -217.34949     246.5296    324.00024      148.181 0.00070044815 0.0006218209 0.00059865566    2225.3034 
 2740000      2750000    302.32067    953.88501    40.882692   -81.901509    177.20106 0.00069893312 0.00062175902 0.00059793661    2220.3868 
 2745000      2755000    309.75195    220.54315   -158.20341    265.62074   -193.80806 0.00069810457 0.00063113438 0.00059667595    2215.4711 
 2750000      2760000    294.61299    394.58956    264.74196    20.802697   -59.947666 0.00070002226 0.00063048189 0.00059611467    2210.5654 
 2755000      2765000     300.1511    -29.66028   -15.006244    -428.1405   -183.70189 0.00069889128 0.0006287464 0.00059553108    2205.6513 
 2760000      2770000    301.14399    285.64199    45.188866     228.4496    466.76955 0.00070044283 0.00062858101 0.00059448019     2200.743 
 2765000      2775000    291.38494   -41.825337   -323.39462   -272.63298   -260.87978 0.00069994738 0.00062722977 0.00059372618    2195.8342 
 2770000      2780000    295.60848   -288.51788    222.20804    286.15772     301.3495 0.00069854845 0.00062659764 0.00059332166    2190.9201 
 2775000      2785000    299.66342    322.51761    245.02094   -43.611323   -136.08337 0.00070136317 0.00062618434 0.00059230075     2186.008 
 2780000      2790000    297.91899   -106.48095   -278.85212    666.16908     363.6951 0.00070110934 0.00062536548 0.00059124842    2181.0979 
 2785000      2795000    304.95807    265.57753    208.18504    370.07574    486.88373 0.00070114523 0.00062384212 0.00058993722    2176.1859 
 2790000      2800000    300.23982   -192.45872   -88.126945   -161.75929    105.05749 0.00069973389 0.00062428065 0.00058876461    2171.2716 
 2795000      2805000    303.37475    230.87076   -49.618285   -93.598313    18.989488 0.0006989536 0.00062320448 0.00058839145    2166.3566 
 2800000      2810000    302.98254   -473.73106   -83.042235   -384.75381    358.08324 0.00069831899 0.00062223034 0.00058868573    2161.4446 
 2805000      2815000    298.14953   -174.56681   -16.947265   -11.870317   -50.858741  0.000697415 0.00062113427 0.0005880411    2156.5355 
 2810000      2820000    299.31321    232.67299   -119.13769    158.33286    34.955529 0.00069600151 0.00061981609 0.00058693599    2151.6199 
 2815000      2825000    298.83526    156.26246    80.000596    186.54816    -397.2568 0.00069755848 0.00061895451 0.00058659379     2146.705 
 2820000      2830000    296.52597    838.36325   -246.87923   -631.97328   -67.789898 0.00069634779 0.00062442354 0.00058535259    2141.7915 
 2825000      2835000    294.47072    704.55952    197.63616    137.32816   -333.62486 0.00069539035 0.00062089615 0.00058468875    2136.8794 
 2830000      2840000    299.15967    384.04197   -284.82929   -57.473625   -351.93246 0.00069394698 0.00061977953 0.00058424117    2131.9623 
 2835000      2845000    299.95038   -263.59693    255.70557   -353.50289    150.73314 0.00069745248 0.00062048832 0.0005835795    2127.0444 
 2840000      2850000    293.41338   -317.44911   -324.98055    115.15631    24.453353 0.00071814909 0.00061805944 0.00058387307    2122.1264 
 2845000      2855000    297.64309   -39.528452   -185.97435   -612.28735    129.10999 0.00071614452 0.00061745567 0.00058353986     2117.213 
 2850000      2860000      298.862   -253.27048   -104.46263    146.25869    35.349906 0.00071594121 0.00061680748 0.00058678211    2112.2959 
 2855000      2865000    303.20263    261.92768    -271.2616     321.0472    286.29452 0.00071476382 0.00061772019 0.00058695445    2107.3801 
 2860000      2870000    309.56229    775.28571   -521.96049   -123.71377    444.21816 0.00071320217 0.00061691231 0.00058511766    2102.4653 
 2865000      2875000     298.4134   -128.02236     63.11359    80.088889   -239.64539 0.00071115383 0.00061933742 0.00058722849    2097.5515 
 2870000      2880000    295.97239    101.75686   -633.63599   -276.20842   -364.33613 0.00071073764 0.00061705602 0.00058684351    2092.6337 
 2875000      2885000    301.64836   -396.18951   -269.99594   -197.98341   -59.515405 0.00071270674 0.00061585335 0.00058904911    2087.7223 
 2880000      2890000    295.13064   -167.58126   -173.24809   -163.13971   -169.58736 0.00070852709 0.00061661832 0.00058910701    2082.8027 
 2885000      2895000    295.42761    46.979053   -376.15814    256.32698   -6.2745279 0.00070854507 0.00062103496 0.00058707812    2077.8948 
 2890000      2900000    297.12325    806.08333    256.92042    18.518797     15.07492 0.00071140436 0.00061993851 0.00058643276    2072.9803 
 2895000      2905000    298.15321    21.579212    331.77514      504.629    42.348027 0.00071567547 0.00061852328 0.0005867126    2068.0693 
 2900000      2910000    301.58177   -219.95866   -15.535672   -286.67417    97.635413 0.00071430291 0.00062269743 0.00058629722     2063.159 
 2905000      2915000    301.66575    205.78033   -19.479209    382.14677   -385.01538 0.00071440145 0.00062027788 0.00058671115    2058.2454 
 2910000      2920000    306.17564   -52.303541   -390.57043   -38.246662    8.4202165 0.00071852845 0.0006197394 0.00058640617    2053.3317 
 2915000      2925000    300.78597    407.73303   -508.83644    147.54198    -29.54354 0.00071666793 0.00061872617 0.00058569723    2048.4212 
 2920000      2930000    306.23814   -163.58893    178.70667   -2.8426874    333.60866 0.00071612252 0.00062595501 0.00058643215    2043.5141 
 2925000      2935000    305.73939   -160.49317   -402.20469    265.99317   -28.531659 0.00071432305 0.00063070808 0.00058715774     2038.602 
 2930000      2940000    297.68394    488.27787   -198.84869   -309.50741   -86.903338 0.00071348127 0.00063014739 0.00058686744    2033.6872 
 2935000      2945000    293.25387   -163.55561   -194.43036    102.39614   -117.78341 0.0007124542 0.00062831612 0.00058656483    2028.7789 
 2940000      2950000    299.13747    285.40088    281.80841    98.134899    328.16517 0.00071453161 0.00062737205 0.00058563364    2023.8631 
 2945000      2955000    299.58023    17.626844    117.35002   -12.696646    297.30353 0.00071413015 0.00063037057 0.00058722793    2018.9539 
 2950000      2960000    297.24275    57.546835   -84.801671    221.42649    248.78553 0.00071434776 0.00062777508 0.00059716619    2014.0452 
 2955000      2965000    298.24464   -39.018452    249.05444    146.45273   -56.023643 0.00071368088 0.00062746219 0.00060309753    2009.1456 
 2960000      2970000    305.49555    449.04191   -212.98565   -119.26952    300.95831 0.00071287071 0.00062700284 0.00060128029    2004.2263 
 2965000      2975000     296.7269    516.24533      296.719   -320.26799    142.73568 0.00071700213 0.00062795978 0.00060041969    1999.3111 
 2970000      2980000      301.066   -80.432806   -420.46559   -304.49846   -61.074843 0.00071817326 0.00062906633 0.00059943567    1994.4011 
 2975000      2985000      289.549    64.127214   -22.060062    -129.5574   -104.39265 0.00071719493 0.00062559564 0.00059998268    1989.4907 
 2980000      2990000    305.09081    629.14773    219.35971    22.762708   -3.1721955 0.00071609356 0.0006247133 0.00060430892    1984.5845 
 2985000      2995000    300.75997    1071.3181    521.35325   -240.35243    159.47786 0.00071570705 0.00062198059 0.00060329536    1979.6723 
 2990000      3000000    302.08829    188.73329    271.16954    258.84165    59.252575 0.00071690232 0.00062518745 0.00060338128    1974.7557 
 2995000      3005000     298.2422    553.15245    583.73176    333.87292   -309.59775 0.00071588604 0.00062289056 0.00060369351    1969.8467 
 3000000      3010000    298.15093   -108.03396    138.72583    493.23436    79.760814 0.00071996826 0.00062251892 0.00060470154    1964.9334 
 3005000      3015000     296.1563   -464.60607   -157.37497   -55.333213    72.039758 0.00071901625 0.00062050531 0.00060394743    1960.0144 
 3010000      3020000    304.70664   -111.53307   -204.02767   -359.91851    102.33377 0.00071817132 0.00061981084 0.0006094318    1955.1028 
 3015000      3025000    301.10042    569.02455    236.09422   -410.85128    436.82644 0.00071767133 0.00062006166 0.00060488342    1950.1885 
 3020000      3030000    292.61814   -153.82388    -206.7525   -368.36373     325.4492 0.00071606126 0.00061923337 0.00060362147    1945.2698 
 3025000      3035000    307.48955    19.639531   -67.682345    193.06527   -21.362293 0.00071468652 0.0006185117 0.00060257752    1940.3498 
 3030000      3040000    303.37346    462.98683   -155.74386   -99.689325    264.45816 0.00071357921 0.00061943551 0.0006019393    1935.4386 
 3035000      3045000    302.18293    170.44472     159.5971   -19.456222   -246.63643 0.00071399301 0.00061757816 0.00060234689    1930.5289 
 3040000      3050000    301.61886    253.05925   -395.61302   -84.506352   -292.63936 0.00071795877 0.00061948379 0.00060174849    1925.6127 
 3045000      3055000    302.64357    200.80708    448.28739   -265.81653    70.068246 0.00071639142 0.0006175966 0.00060077993    1920.6983 
 3050000      3060000    297.28266    343.15245    171.08711   -494.41959   -283.90733 0.00071644729 0.00061721101 0.00060509431    1915.7825 
 3055000      3065000    303.69218   -199.80055   -391.24315    15.897726   -120.78145 0.00071544621 0.00061755125 0.00060377932    1910.8663 
 3060000      3070000     295.9562   -419.83252   -624.88387   -131.99209    -70.92683 0.00071944358 0.00062235828 0.00060357601    1905.9523 
 3065000      3075000     295.5698   -110.40297   -87.877484   -398.03972   -7.0120875 0.00072085031 0.0006222745 0.00060421899    1901.0349 
 3070000      3080000    293.88919   -249.41271     374.3281    -281.0371   -9.7948608 0.00072032323 0.00062441575 0.0006072016    1896.1255 
 3075000      3085000      305.451    157.40669    412.58496   -577.23338     -133.831 0.00072122544 0.00062218743 0.00060612438    1891.2084 
 3080000      3090000    301.00856   -348.14014    171.59869   -326.12993    31.795145 0.00072388651 0.00062147577 0.00060767501    1886.2973 
 3085000      3095000    294.80598     741.8772     38.94339   -340.79859    485.15163 0.00072073766 0.00062048141 0.00060617478    1881.3826 
 3090000      3100000    296.20016    468.16518    257.51052     103.8771   -102.63109 0.00072361632 0.00061954455 0.0006057289    1876.4687 
 3095000      3105000    305.66493    500.77235    4.8363399    418.51014    14.641062 0.00072370867 0.00061864516 0.00060454751    1871.5579 
 3100000      3110000    300.23938    206.11154   -321.66578   -499.04152       6.0069 0.00072331054 0.0006285087 0.00060718841    1866.6427 
 3105000      3115000    304.92348   -374.47334    42.489962   -136.59724    685.94016 0.00072726112 0.00062870798 0.00060904232    1861.7326 
 3110000      3120000    301.70934    8.4975562   -512.84024   -162.12098    22.957782 0.00072602391 0.00063453708 0.00060870855    1856.8197 
 3115000      3125000    297.54881    161.09891   -430.60214    227.99826    395.59063 0.00072587763 0.00063553192 0.00060758659    1851.9056 
 3120000      3130000    299.69536    61.116915   -115.70862    240.28854   -87.543716 0.0007237935 0.00063388247 0.00060717989    1846.9872 
 3125000      3135000    302.57841    57.105406   -359.42055    196.57862    149.92848 0.00072654986 0.00063281856 0.00060997015    1842.0743 
 3130000      3140000    290.97534    37.969683   -416.69945    444.90366    181.03134 0.00073029533 0.00063246573 0.00060670594    1837.1692 
 3135000      3145000    300.45896    392.96945   -490.73269    122.32489    -596.3163 0.00073396539 0.00063166135 0.00060527481    1832.2609 
 3140000      3150000    294.27892     362.8471     38.28178    282.52308    369.53342 0.00073393026 0.00063293153 0.00060569065    1827.3479 
 3145000      3155000    302.01248    344.64766    282.69795    284.13399    114.37198 0.00073607958 0.00063276457 0.00060533987    1822.4282 
 3150000      3160000    298.30908   -97.562709   -191.85787    55.607733    204.93363 0.00073723467  0.000632859 0.00060425434    1817.5105 
 3155000      3165000    295.36365   -28.686857   -274.88397   -51.158655    181.49768 0.00073563493 0.00063094617 0.00060330319    1812.6032 
 3160000      3170000    298.34421   -205.39437    -16.96412   -75.847777   -68.772157 0.00073710496 0.00063621072 0.00060376629    1807.6908 
 3165000      3175000    297.07638    340.25848   -132.61687    336.55874   -87.634878 0.00073549578 0.00063629426 0.00060254741    1802.7829 
 3170000      3180000    304.06576    15.522714   -352.95586    287.08919    398.20291 0.00073433438 0.00063767808 0.00060188257    1797.8716 
 3175000      3185000       301.75    158.73039    112.15145   -41.093102    -335.7289 0.00073349457 0.00063781206  0.000600553    1792.9514 
 3180000      3190000    303.58889    326.97366   -452.23569    144.44805    458.28926 0.00073457279 0.00063659796  0.000600041    1788.0369 
 3185000      3195000    301.90822   -13.116277    566.57558   -296.50059    438.19928 0.00073389292 0.0006348365 0.00059937942    1783.1194 
 3190000      3200000     299.7894   -106.59713   -667.32459   -227.25783    144.88315 0.00073614855 0.00063300494 0.00059802572    1778.2098 
 3195000      3205000     291.7662    8.0296395   0.37718879   -238.95979    146.37436 0.00073456903 0.00063160461  0.000596908    1773.3012 
 3200000      3210000    302.61289   -132.16059   -22.446857    193.52004   -243.90156 0.00073462266 0.00063074515 0.00059674365    1768.3857 
 3205000      3215000    292.57017   -224.74945    143.15663   -485.62329    210.31051 0.00073262549 0.00063047811 0.00059849647    1763.4687 
 3210000      3220000    289.31913   -361.98844    -39.59829    70.824693     118.2118 0.00073252324 0.00063136872 0.00059658892    1758.5543 
 3215000      3225000    299.52143    -208.3263     322.2401   -37.581579    198.62076 0.0007358862 0.00062965193 0.00059560209    1753.6436 
 3220000      3230000    299.90593    379.80634   -105.35552    550.23502    498.09893 0.00073307928 0.00062893599 0.00059707437    1748.7253 
 3225000      3235000    299.61412   -101.52099   -53.303958     251.1424   -439.36724 0.00073002221 0.00062803006 0.00059616236    1743.8128 
 3230000      3240000    303.59811   -1.9385002   -130.25684    294.23837    379.86099 0.00072715444 0.00062776291 0.00060049433     1738.899 
 3235000      3245000    301.22762   -63.672479    380.06131   -17.936335   -591.20712 0.00072590737 0.00062789766 0.00060386748    1733.9828 
 3240000      3250000    299.57823    100.81461   -319.69552    263.24635    221.92493 0.00072470847 0.00062760674 0.00060223315    1729.0711 
 3245000      3255000    304.48665    166.44017   -323.86055    47.877866   -406.78258 0.00072530968 0.00062705281 0.00060382257    1724.1595 
 3250000      3260000      303.873    -132.6999    163.47658   -31.148851    319.01287 0.00072539577 0.00062584827 0.00060291675     1719.256 
 3255000      3265000     301.3872   -65.775178    101.24168   -54.890557  -0.33555767 0.0007271691 0.00062486203 0.00060363469    1714.3535 
 3260000      3270000     296.0848     252.0927   -271.14044    -271.6804   -65.744732 0.00072418513 0.00062565874 0.00060302077     1709.441 
 3265000      3275000    300.00964    -196.4307    353.50535   -164.81263    29.505863 0.00072251136 0.00062815677 0.00060234974    1704.5294 
 3270000      3280000    301.78077    239.65869   -516.13768   -363.37481    124.73214 0.0007216731  0.000626726 0.00060208777    1699.6137 
 3275000      3285000    298.39779    160.35995    272.77843     2.445447    -135.6149 0.00072043098 0.00062668848 0.00060208295    1694.6983 
 3280000      3290000    295.51286   -705.95454    164.11683   -39.455174    -494.2425 0.00072168663 0.00062812434 0.00060249323    1689.7816 
 3285000      3295000    299.70533   -6.0403416    78.838287    -100.4892    92.693442 0.00072160987 0.00062763147 0.00060241985    1684.8721 
 3290000      3300000     300.7841    336.34726   -14.480718    158.60282   -92.053013 0.00072069246 0.00062782832 0.00060335044    1679.9666 
 3295000      3305000    297.23864    146.19907   -111.04565    490.18076   -315.59053 0.00072167087 0.0006282501 0.00060390996    1675.0534 
 3300000      3310000    302.10373    80.480386   -46.017106    11.415834    104.68172 0.00071972848 0.00063441842 0.00060438965    1670.1396 
 3305000      3315000    299.33755   -326.87274   -87.270651    270.24753   -362.26062 0.00071858188 0.00063440331 0.00060459892     1665.229 
 3310000      3320000    293.30054    77.724154   -133.29584    111.06948    51.848221 0.00071773806 0.00063426944 0.00060416389    1660.3141 
 3315000      3325000    298.26371    1612.2131    63.072978    -124.0934   -335.84326 0.00071738156 0.00063345008 0.00060387701    1655.4016 
 3320000      3330000    293.46198   -345.28958    169.78228    62.964431   -341.33798 0.00071657946 0.00063554008 0.00060273012    1650.4856 
 3325000      3335000    301.45114   -342.34851   -49.036358   -333.51478   -74.950778 0.0007152482 0.0006369161 0.00060445958    1645.5733 
 3330000      3340000    296.10953     334.9724    390.99761    96.969267   -25.607193 0.00071487229 0.00063587658 0.00060307254    1640.6592 
 3335000      3345000    292.97122    60.260781    301.70871   -221.45847    461.42096 0.00071650182 0.00063556868 0.00060289713    1635.7447 
 3340000      3350000    302.05971    213.42001   -252.28582    236.54365   -8.1236758 0.0007168132 0.00063434501 0.00060232105    1630.8345 
 3345000      3355000    300.23655    335.87797    129.83614   -75.139995    186.87934 0.0007144935 0.00063325226 0.00060202993    1625.9218 
 3350000      3360000    296.94163    555.77121   -568.27023    207.61271    43.632869 0.00071553546 0.00063485742 0.00060130011    1621.0118 
 3355000      3365000     303.4275   -105.60662   -371.33485   -141.18029    -126.3129 0.00071475851 0.00063959981 0.00060011724     1616.097 
 3360000      3370000    305.36853    433.58431    707.22948    237.43206    317.17796 0.00072322272 0.00063861433 0.00059940285    1611.1888 
 3365000      3375000    294.63125    -44.79496   -161.27216   -188.60627    -63.58886 0.00072143749 0.00063779542 0.00059951699    1606.2798 
 3370000      3380000    299.98091   -44.012449    89.026268    75.727789    39.166378 0.00072227126 0.00063685096 0.00059950736     1601.367 
 3375000      3385000     297.1964    286.91773   -322.65738    310.01422   -399.18401 0.00072159118 0.00063561343 0.00059914005    1596.4589 
 3380000      3390000     296.5933    126.64352    232.35976    280.36171    153.15375 0.00072044086 0.00063937721 0.00060161712    1591.5482 
 3385000      3395000    298.26592    590.75691    273.14377    328.75586    0.7228711 0.00072078623 0.00064116896 0.00060183884    1586.6348 
 3390000      3400000    298.14219    313.21311   -9.1631783    109.15423    266.04481 0.00071979359 0.0006444314 0.00060047503    1581.7226 
 3395000      3405000    293.13375      254.733   -126.16485    -206.8422    9.4284071 0.00071972151 0.00064361104 0.00060099777    1576.8092 
 3400000      3410000     297.8552    92.828013   -1.4791553   -50.708091    384.84022 0.00071905229 0.00064522796 0.00060041197    1571.8962 
 3405000      3415000    301.06122     844.5429    139.41353    476.68073    349.25563 0.00071698316 0.00064550953 0.00060103126    1566.9833 
 3410000      3420000    300.46741    254.22332    83.302958    217.28731    90.951244 0.00071858834 0.00064611942 0.00060043515    1562.0721 
 3415000      3425000    308.47442   -533.20169   -127.09225    38.800924   -669.67579 0.00071828405 0.00064514162 0.00060009173    1557.1607 
 3420000      3430000    294.45808    250.15092    -184.1552   -35.104329   -148.06344 0.00071653156 0.00064470012 0.00059860249    1552.2488 
 3425000      3435000    297.24152    105.21887   -296.10251   -53.823639    375.00825 0.00071802164 0.0006440832 0.00059799283    1547.3374 
 3430000      3440000    301.86134   -616.48557    -120.9245    160.64043   -325.06816 0.00071540304 0.00064394515 0.00059711293    1542.4217 
 3435000      3445000    296.64025    170.13873    -169.7397    722.80006    392.63392 0.00071624028 0.00064265774 0.00059775246    1537.5114 
 3440000      3450000    300.91896    572.98788   -71.768457    -110.8427    101.73098 0.00071557745 0.00064153224 0.00059714028    1532.6013 
 3445000      3455000    301.66435    15.657336   -234.19126   -200.40194   -710.27356 0.00071553058 0.00064330693 0.00059752337    1527.6843 
 3450000      3460000    290.50993   -121.74145    87.463358    634.18892    190.68917 0.0007169017 0.00064604955 0.00059641148    1522.7701 
 3455000      3465000    294.20809    134.62136    177.50417    9.9773187    581.97102 0.00071559195 0.00064670036 0.00059606652    1517.8574 
 3460000      3470000    306.41944   -15.765321    153.82968   -465.66859   -42.872439 0.00071554999 0.00064518576 0.00059557464    1512.9509 
 3465000      3475000    304.62201    426.18787   -294.56679    862.39688    616.69711 0.00071665637 0.00064491634 0.00059464502    1508.0375 
 3470000      3480000    308.62896   -130.20113   -223.28745    456.87934    2.8017813 0.00071576789 0.00064463932 0.00059369474    1503.1268 
 3475000      3485000    292.36407    291.50591   -413.39847   -253.35937   -522.45356 0.00071485001 0.00064354545 0.00059298766    1498.2127 
 3480000      3490000     300.7472    366.02879    397.07935    171.17386   -400.97481 0.00071336435 0.00064254142 0.00059404491    1493.2999 
 3485000      3495000    304.22911   -185.42237   -239.40612     362.9775   -270.48387 0.00071224501 0.00064218179 0.00059533313    1488.3864 
 3490000      3500000    300.29533   -279.48054     240.5923    239.04092   -5.4362743 0.00071122641 0.00064125624 0.00059351671    1483.4733 
 3495000      3505000    298.70218   -328.81904   -93.973802     196.4655   -274.35158 0.00071174449 0.00064108311 0.00059549687     1478.561 
 3500000      3510000    298.03059    178.14388    294.92763    58.509168   -260.38647 0.00071016949 0.00064188362 0.00059362407    1473.6454 
 3505000      3515000    297.03772    215.14355   -417.82708   -24.121313     126.3131 0.00071282725 0.00064071865 0.00059400284    1468.7321 
 3510000      3520000    304.60403     205.2202    275.73829   -112.65274   -49.600317 0.00071255105 0.00064703353 0.00059662672    1463.8217 
 3515000      3525000    292.26178   -49.169627    136.68754   -272.58506    84.222843 0.00071211786 0.00064601376 0.0005961691    1458.9084 
 3520000      3530000     301.2265   -80.704049   -192.04957    126.02517     -263.678 0.00071149745 0.00064559961 0.00059573639    1453.9975 
 3525000      3535000     297.6916    264.25586   -129.99967    378.52915    479.30037 0.00071061197 0.00064739854 0.00059599399    1449.0869 
 3530000      3540000    298.21245    322.53696    133.48203   -414.53486    1031.4745 0.00071007354 0.00064642964 0.00059416629    1444.1735 
 3535000      3545000    302.97081    574.52898    282.57243    152.07459   -67.071911 0.00071056958 0.00064604379 0.00059125056    1439.2595 
 3540000      3550000    296.87046   -94.771193    281.50267    488.26624    140.05271 0.00071205753 0.00064579314 0.00059146495    1434.3468 
 3545000      3555000    299.13203   -7.1839746    100.24695    460.14464    175.27194 0.00070925175 0.00064512209 0.00059106671     1429.431 
 3550000      3560000    308.91727   -268.83686   -217.74581    108.68372   -261.59981 0.00071312433 0.0006476668 0.00059014754    1424.5146 
 3555000      3565000    305.94839    274.42299    126.69377   -215.50187    266.92862 0.00071264435 0.00064682014 0.00058942158    1419.6067 
 3560000      3570000    298.83311    201.92366    130.75744    269.59117   -47.950743 0.00071184756 0.00065163711 0.0005874285    1414.6974 
 3565000      3575000    303.71721    340.75437    201.84113    26.501798    453.47679 0.0007106883 0.0006512196 0.00058640067    1409.7862 
 3570000      3580000     304.8506    428.34832    27.113067    424.75423   -370.63324 0.00071050432 0.00064922282 0.0005862937    1404.8705 
 3575000      3585000    295.58085    265.41631   -139.05827    343.75792   -216.26397 0.00071157549 0.00065756512 0.00058702064    1399.9566 
 3580000      3590000    300.21124    588.13651   -263.76632   -433.62572     428.3021 0.00071019541 0.00065858997 0.00058716582    1395.0451 
 3585000      3595000    298.08707   -4.2583681    146.24001   -55.812438   -435.89098 0.00071199427 0.00065777873 0.00058855262     1390.132 
 3590000      3600000    297.81603    173.22215    195.73497    88.648091    210.42815 0.00071069341 0.00065743161 0.00058700191    1385.2196 
 3595000      3605000    296.11861    443.71259    -353.4816   -29.194097   -379.96931 0.00071119583 0.0006568374 0.00058624213    1380.3098 
 3600000      3610000    297.97573   -35.086636   -472.95534    54.780156   -283.51828 0.00070963815 0.00065557809 0.00058598099    1375.3969 
 3605000      3615000    297.79799   -53.075791    233.12175   -161.74656   -351.93333 0.00070833055 0.00065497408 0.00058480878    1370.4855 
 3610000      3620000    303.43484   -33.994735   -333.68514    422.11574    -321.9285 0.00070688215 0.00066257566 0.00058349592    1365.5715 
 3615000      3625000      301.323   -90.725414    197.55709    153.01726   -442.42694 0.00070989199 0.00066175376 0.00058569622    1360.6571 
 3620000      3630000    300.98707    55.964454   -68.557632    351.39119   -68.174953 0.0007132247 0.0006613632 0.00058535028    1355.7487 
 3625000      3635000    296.92667   -128.91976    42.135564    266.72474    209.80897 0.00071352643 0.00066171607 0.00058470059    1350.8352 
 3630000      3640000    289.77925   -247.21097   -134.97207   -130.26402    128.33726 0.00071288555 0.00066065208 0.00058392187    1345.9196 
 3635000      3645000    301.70293    718.48562   -516.31618    32.826949    263.86199 0.00071439081 0.00065986965 0.00058277781    1341.0057 
 3640000      3650000    296.68367   -37.914994   -415.27803   -317.98732   -394.12912 0.00071580529 0.00065937089 0.00058209364    1336.0949 
 3645000      3655000    293.00604    75.803349    143.97108    23.179832    111.66494 0.00071647117 0.00066194517 0.00058256023     1331.182 
 3650000      3660000    300.47013    176.42541    117.14606    242.67568    90.926436 0.00072223648 0.00066576987 0.00058555616    1326.2746 
 3655000      3665000    300.45131    60.271238   -97.372793    3.2935101    -48.39747 0.00072036938 0.00066544996 0.00058724234    1321.3615 
 3660000      3670000    299.98876    679.19033   -322.82222    440.24779    32.767728 0.0007226544 0.00066464857 0.00058720742    1316.4499 
 3665000      3675000    297.08051     612.7973    116.03792    245.54312    431.08668 0.00072376152 0.00066470202 0.00058692403    1311.5374 
 3670000      3680000    303.55005    218.38704   -306.43567   -95.118721    196.92373 0.00072324315 0.00066514043 0.00058644748    1306.6233 
 3675000      3685000    301.17434   -238.57476    576.29652   -126.46455   -215.48549 0.00072144954 0.0006663963 0.00058589526    1301.7121 
 3680000      3690000    301.12684    626.64722   -12.332783   -190.36201    102.67492 0.0007234006 0.00066500034 0.00058355114    1296.7945 
 3685000      3695000    298.03533    105.40686   -343.85689   -13.595904   -182.03051 0.00072488669 0.00067092275 0.00058161802    1291.8805 
 3690000      3700000    299.24009   -146.88266    224.80417   -331.36473   -201.33545 0.00072375176 0.00066884524 0.00058056216    1286.9702 
 3695000      3705000     300.2063   -15.622006    346.37729    67.275969     334.5229 0.00072583687  0.000668793 0.00058207317    1282.0575 
 3700000      3710000     299.0985    125.85286    312.41269    515.68506   -354.58423 0.0007245827 0.00066810698 0.00058114059    1277.1454 
 3705000      3715000    296.36442   -200.15345   -107.45911    168.43623   -51.914395 0.00072603225 0.00066758593 0.00058086711    1272.2354 
 3710000      3720000     298.4155   -166.56627   -221.52305   -64.801207    73.456598 0.00072536543 0.00066627798 0.00058001651    1267.3242 
 3715000      3725000    299.51004    152.83752   -1.7254305    261.97606   -298.85412 0.00072670733 0.00066489927 0.00057986109    1262.4108 
 3720000      3730000    301.39019   -104.10476    30.335709    225.27189    223.34262 0.00072944879 0.00066340289 0.0005789776    1257.4955 
 3725000      3735000    303.26683    -151.5789   -22.807036   -85.897029    108.21797 0.00073773884 0.00066621959 0.00057764256    1252.5814 
 3730000      3740000    299.23634    639.04027    412.39465   -81.295694    386.14697 0.00073833714 0.0006644964 0.00057716362    1247.6669 
 3735000      3745000    296.90457   -290.01211   -72.359218    91.606874    136.96382 0.00073737308 0.00066622635 0.00057716244    1242.7531 
 3740000      3750000    304.85765    379.79286    -121.7679   -66.003645    345.32127 0.00073666676 0.00066535333 0.00057696511    1237.8423 
 3745000      3755000    302.81201    195.75087    243.94413    395.67717   -194.75014 0.00073563604 0.00066498738 0.0005792368     1232.933 
 3750000      3760000    299.64908    474.46405    198.12312   -248.17389   -199.11786 0.00073572894 0.00066291238 0.0005781138     1228.019 
 3755000      3765000    310.65465    105.51216    69.949796   -244.83793   -422.96659 0.00073349102 0.00066354566 0.00057984952    1223.1081 
 3760000      3770000    301.99151    463.38931    90.771416    214.62845    390.76012 0.00073385163 0.00066344531 0.0005801966    1218.1961 
 3765000      3775000    298.04898    138.08812   -414.29177    100.04336   -256.63755 0.00073440009 0.00066265144 0.00057974029    1213.2818 
 3770000      3780000    303.47792    261.16467   -46.461236   -585.48697   -129.29972 0.00073991251 0.00066238179 0.00058166522    1208.3702 
 3775000      3785000    295.08632    104.59495    237.69634    69.431832   -351.47081 0.00074096882 0.00066200175 0.00058502664    1203.4589 
 3780000      3790000    295.35169    295.65505    371.34929   -217.65808   -581.26838 0.0007421207 0.00066160212 0.00058546754    1198.5464 
 3785000      3795000    299.98287    614.56314   -155.47815   -378.92355    220.82363 0.00074121479 0.00066091755 0.00058459398    1193.6343 
 3790000      3800000    301.27605    235.20872     376.8716    131.59766    -138.2475 0.00074497417 0.00065968863 0.00058383843     1188.723 
 3795000      3805000    297.75902    371.82299   -128.33113   -163.85605  0.077485462 0.00074305523 0.00065865709 0.00058627159    1183.8076 
 3800000      3810000    302.40441   -340.10939    253.22016    -237.9153   -46.539843 0.00074191105 0.00065859966 0.00058878789    1178.8963 
 3805000      3815000    298.24992    460.48381   -404.93073    267.81601   -124.47417 0.0007413111 0.00065809092 0.0005880337    1173.9823 
 3810000      3820000    297.24776    336.68611   -6.5029185   -386.22593    -39.58681 0.00074179964 0.00065808353 0.00058774101    1169.0672 
 3815000      3825000     302.7201    336.89405    69.247662   -158.55029   -45.009049 0.00074320476 0.00065666791 0.00058675617    1164.1569 
 3820000      3830000     299.2564    -160.1927    271.49695   -17.360141   -711.43772 0.00074274829 0.00065558151 0.00058667257    1159.2422 
 3825000      3835000    300.45363    210.13405    161.60555   -253.06792   -379.38693 0.00074571006 0.00065557018 0.00058662343    1154.3332 
 3830000      3840000     300.1587   -337.19902   -61.183081   -238.17911    359.62966 0.00074618819 0.00065547876 0.00058879996    1149.4232 
 3835000      3845000     302.7768   -170.71156    307.19968   -13.877114   -281.30796 0.00074486151 0.00065743286 0.00058818955    1144.5125 
 3840000      3850000    300.34853   -56.574886    343.14343    74.508541    5.9721648 0.00074391866 0.00065687166 0.00059028622    1139.5998 
 3845000      3855000    300.07026    51.592808   -191.96861    164.66158   -81.932174 0.0007438295 0.00065643204 0.00058977272    1134.6859 
 3850000      3860000    299.88881    728.00302    180.19214   -85.290207    93.891671 0.00074571112 0.00065696592 0.00058896206    1129.7735 
 3855000      3865000    305.68322    129.64022   -253.14342    134.57705    321.68357 0.00074350851 0.00065527489 0.00058849651    1124.8605 
 3860000      3870000    301.08388   -154.15183    59.037097   -50.367879   -37.017243 0.00074423479 0.00065815403 0.00058771178    1119.9512 
 3865000      3875000    301.00902   -138.11562   -84.782238   -309.60077   -452.27979 0.00074514884 0.00065764246 0.00058672461    1115.0381 
 3870000      3880000     297.9454     499.8273    111.18932    22.955853    216.73705 0.00074576473 0.00065990978 0.00058630405    1110.1265 
 3875000      3885000    299.88917    79.319429   -86.169829    55.202786     204.4924 0.00074742877 0.00065866734 0.0005859002     1105.212 
 3880000      3890000    306.46191   -202.19075    346.10547    201.23638    401.92708 0.00074967233 0.00065859241 0.00058505836    1100.2997 
 3885000      3895000    296.92489    -155.6889    186.17812     64.78648    -92.16725 0.00074856381 0.00066213403 0.00058459129    1095.3865 
 3890000      3900000    298.23163   -211.60421    271.33185    574.18849    141.63162 0.00074761252 0.00066281104 0.00058367789     1090.476 
 3895000      3905000    296.00644    400.73929     406.8377    210.40899    111.46158 0.00074820868 0.00066434391 0.00058305837    1085.5628 
 3900000      3910000    302.98641    381.08945   -190.85741   -594.16058    20.034364 0.0007479036 0.00066434554 0.00058347508    1080.6513 
 3905000      3915000    300.52862   -332.56258     262.8386    53.051861     162.8211 0.00074691937 0.00066768695 0.00058294169    1075.7417 
 3910000      3920000    303.27344    1024.1175   -224.25774   -311.20041    22.522948 0.00074599693 0.00066879684 0.00058321953    1070.8572 
 3915000      3925000    305.92264    259.44853    268.64218     16.42331    182.94534 0.00074448282 0.00066709265 0.00058243848    1065.9718 
 3920000      3930000     302.8635    366.88625    2.0753941   -16.929737    389.43618 0.00074327877 0.00066548049 0.00058175087    1061.0841 
 3925000      3935000    303.71373   -124.87186    302.06563    198.04356   -241.72565 0.0007439994 0.00066494991 0.00058062945     1056.201 
 3930000      3940000    298.56944    569.11242    96.837343   -158.02072   -189.96546 0.00074326957 0.0006625484 0.00058557933    1051.3162 
 3935000      3945000     295.9038    424.15975    71.241404   -173.65443   -291.27757 0.0007424237 0.00066246561 0.00058565195    1046.4278 
 3940000      3950000    292.48419    545.42136    152.16329    358.49028    241.97887 0.00074274289 0.00066264735 0.00058760107    1041.5395 
 3945000      3955000    306.05314    67.819127    485.58477    81.377256   -130.01046 0.00074164002 0.00066154222 0.0005873653    1036.6519 
 3950000      3960000    301.59503   -218.71392   -31.240079    250.90763   -100.28669 0.00074157815 0.00066268431 0.00058687062    1031.7643 
 3955000      3965000    301.20783    137.43861    32.267905    9.1994882      252.767 0.00074204468 0.00067034359 0.00058828399    1026.8775 
 3960000      3970000    299.51954   -4.4673676     176.0268     565.1272   -124.36978 0.00074056407 0.0006694338 0.00058824023      1021.99 
 3965000      3975000    302.85273   -12.856939   -218.44898   -48.059237   -335.88933 0.00074094638 0.00066908945 0.00059311358    1017.1023 
 3970000      3980000    298.08549    56.101984    141.12511    257.97557    165.21662 0.00074190383 0.00067035021 0.00059368712    1012.2157 
 3975000      3985000    297.25306   -239.78226    421.13902    84.393338   -330.10036 0.0007441667 0.00066981994 0.00059169361    1007.3242 
 3980000      3990000    302.98607    535.86677    81.220544     111.8086    153.76191 0.00074304364 0.00066879279 0.00059056091    1002.4356 
 3985000      3995000    300.27328   -26.262342   -588.82861    103.80451    544.29852 0.00074477542 0.00066871915 0.00059025778    997.54761 
 3990000      4000000    300.00838   -194.75029   -226.47857     -149.158     11.28281 0.00074714788 0.00066766865 0.00058952199    992.65863 
 3995000      4005000    302.11063     15.72714    16.503865    186.80255    77.173323 0.00074827985 0.00066745013 0.00058881274    987.76906 
 4000000      4010000    299.41446    70.637894    70.494198    8.7463863    202.18762 0.00074717455 0.00066830846 0.00058858353     982.8796 
 4005000      4015000    300.53398   -293.34078   -100.87419    132.00605    271.42782 0.00074854594 0.00066848675 0.00058754852    977.98924 
 4010000      4020000      295.544   -96.547224   -238.61608   -11.407371   -389.47531 0.00074899061 0.00066724385 0.00058787775    973.09753 
 4015000      4025000    297.38332    115.03857    -614.0068   -245.08523   -181.51708 0.00074817504 0.00066690427 0.00058790715    968.20569 
 4020000      4030000    295.98473   -17.208567   -277.84106   -17.455977   -346.31286 0.00074812896 0.00066585602 0.00058790712     963.3119 
 4025000      4035000    297.36307    350.15826    319.04204    278.28899    182.82162 0.00074789443 0.00066491166 0.00058755413    958.42104 
 4030000      4040000    305.46192    459.41041    264.34273    336.54138   -129.20686 0.00074645781 0.00066414881 0.00058710973    953.52964 
 4035000      4045000    302.60771    332.37775   -554.92594    64.663759    129.90935 0.00074810757 0.00066335748 0.00058622324    948.63615 
 4040000      4050000     305.6878    542.19174   -733.18488   -118.82007    552.03445 0.00074955314 0.0006627942 0.00058662473    943.74379 
 4045000      4055000    293.13282   -50.438078   -419.70982   -224.31447   -246.79397 0.00074977727 0.00066207986 0.00058643624    938.84899 
 4050000      4060000     294.7237    226.30142   -5.1963441    -46.18932    -129.5252 0.00075012601 0.00066115574 0.00058664672     933.9523 
 4055000      4065000    299.73528    548.25764    442.60373   -518.75614   -189.64492 0.00074890783 0.0006594244 0.0005865737    929.05911 
 4060000      4070000    305.62002    163.45796    568.58978    367.06942   -147.45708 0.00075036478 0.00065818017 0.00058521386    924.16485 
 4065000      4075000    296.57771    355.56804    206.97171    102.46291    87.025363 0.00074928635 0.00065874557 0.00058525673    919.27127 
 4070000      4080000    298.21391    179.74985    124.27149    307.39478    413.97779 0.00074824255 0.00065857966 0.00058370505    914.37929 
 4075000      4085000     299.0428    39.383688   -185.13033     157.9483   -136.51841 0.00074745644 0.00065819222 0.00058284078    909.48476 
 4080000      4090000    295.41544    57.437153     167.2045   -573.20328   -182.73106 0.00074738717 0.00065750303 0.00058391415    904.59101 
 4085000      4095000    294.95123    115.97269    311.13539    -39.79733   -99.067283 0.00074712009 0.00065637448 0.00058274703    899.69631 
 4090000      4100000    302.39108    538.97232    108.52922   -7.1571201   -291.32592 0.00074663655 0.00065615059 0.00058165839    894.79965 
 4095000      4105000    298.87183    3.8262217   -76.472718   -452.37825    158.38545 0.00074618935 0.00065599495 0.00058156108    889.90371 
 4100000      4110000    295.36494    109.92783    289.21182   -5.8727818    138.17871 0.00074644502 0.00065548199 0.00058314866    885.00626 
 4105000      4115000    303.91608   -201.41032    310.26072    206.95893     317.7043 0.00074635626 0.00065464296 0.00058190828    880.10885 
 4110000      4120000    299.80846    508.62916   -150.36926    240.71943    62.142615 0.00074644647 0.00065436226 0.00058098806    875.21138 
 4115000      4125000    296.63002   -118.69507    -169.5385   -349.51663    267.00611 0.00074613877 0.00065356538 0.00057965072    870.31261 
 4120000      4130000    304.84268    353.92899   -206.61762   -323.44513   -455.34208 0.00074469947 0.00065291522 0.00057923583    865.41418 
 4125000      4135000    300.13093     234.3368   -282.86824   -36.104222    359.92884 0.00074490344 0.00065845663 0.00058064775    860.51654 
 4130000      4140000    295.16447    34.094096    167.42266   -172.52216    228.94135 0.00074417839 0.00065924773 0.00057857116    855.61714 
 4135000      4145000    303.74731    218.90385    27.211269   -241.38606    252.93675 0.00074439644 0.00065766004 0.00057747181    850.72112 
 4140000      4150000     304.5095     376.1118   -229.51418    -24.60993   -241.79529 0.00074347995 0.00065907636 0.00057651464    845.82526 
 4145000      4155000    296.42505    64.394158   -138.39765    200.02429    337.67596 0.00074242228 0.00065862231 0.00057603924    840.92532 
 4150000      4160000    291.88255   -444.84506   -563.06501    221.37166    124.55336 0.00074196459 0.0006579895  0.000575982     836.0226 
 4155000      4165000    298.77199    954.12899   -138.62985    512.17638    201.36455 0.00074223716 0.00065736383 0.0005766317    831.12449 
 4160000      4170000    295.91123     380.6178    113.56714     246.4822   -225.78095 0.00074662497 0.00065894816 0.00057605703    826.22293 
 4165000      4175000    299.24172    342.77855    107.35119    453.99818    239.32041 0.00074624057 0.00065762749 0.00057648508    821.32475 
 4170000      4180000    302.90333   -210.78421   -107.41071    65.024571   -95.605398 0.00074600997 0.00065780701 0.00057688211    816.42553 
 4175000      4185000    301.48377    358.62071   -372.64509    -562.1663    648.03847 0.00074509319 0.00065822758 0.0005765179    811.52369 
 4180000      4190000    302.47974    509.92728    181.95821   -197.78223    196.62523 0.00074459377 0.00065707704 0.00057689123    806.62173 
 4185000      4195000    292.43311   -12.150846    416.31813   -69.148251    518.05358 0.00074379142 0.00065647479 0.00057639217    801.72091 
 4190000      4200000     300.6537   -666.55517    42.837233   -255.69208   -270.78478 0.00074325833 0.00065665196 0.00057782482    796.82108 
 4195000      4205000    294.89577    157.17952   -239.12749   -148.54942    100.36347 0.00074265352 0.00065564925 0.00058414151     791.9193 
 4200000      4210000    298.88635   -239.92558    248.92245   -317.71065   -215.71174 0.00074118705 0.0006547083 0.00058651243    787.01845 
 4205000      4215000    299.48211    367.04716   -315.04333    50.796994    354.41668 0.00074024767 0.00065388952 0.0005857715    782.11823 
 4210000      4220000    294.80834    36.495233    75.840923   -527.03425   -37.763823 0.00073973047 0.00065517849 0.00058655192     777.2171 
 4215000      4225000    293.08155     0.156057    349.79061    -122.3798   -227.67594 0.00073880465 0.0006556138 0.00058673829    772.31504 
 4220000      4230000    296.44733   -78.945861   -202.21652   -251.07218   -355.94973 0.00073821478 0.00065557788 0.00058690144    767.41234 
 4225000      4235000    307.18481    460.21347    148.84494    184.22103   -160.18113 0.00073702191 0.00065487029 0.00058653787    762.51252 
 4230000      4240000    302.78524    234.02733   -26.069465    251.08283   -6.5293544 0.00073611903 0.0006546623 0.00058579599    757.60912 
 4235000      4245000    292.74596    502.40009    105.43257    353.32526   -197.81888 0.00073758703 0.00065396899 0.00058573666    752.70677 
 4240000      4250000    303.10432   -84.211744   -136.41903   -23.613653   -114.67605 0.00073751529 0.00065321511 0.00058537283    747.80461 
 4245000      4255000    297.84588   -338.32061    756.77348    143.26591   -283.58796 0.00073667985 0.00065222299 0.00058667907    742.90198 
 4250000      4260000    299.64026    347.75032   -376.08856     42.65505   -344.49377 0.00073833212 0.00065350947 0.00058499431    737.99752 
 4255000      4265000    296.99147     156.3062   -64.783674    459.70231    80.047997 0.00074117679 0.00065181864 0.00058523191    733.09361 
 4260000      4270000    300.01708    -248.5419    107.22986   -440.75913    640.98452 0.00074310503 0.00065267727 0.00058452748    728.18936 
 4265000      4275000    305.69015   -226.46268   -3.6228829    156.66054   -164.11782 0.00074224562 0.00065244416 0.00059173167    723.28451 
 4270000      4280000    294.95574   -183.56042   -67.194274    -110.1482   -219.59457 0.00074212372 0.00065153124 0.00059081954    718.37814 
 4275000      4285000     295.8015    -533.4064   -123.24258    443.92889    241.15047 0.00074067498 0.00065068204 0.00058977818    713.47249 
 4280000      4290000    297.17592    141.15747    55.890519   -277.44653   -114.17364 0.00074099999 0.00065146722 0.00059003105    708.56728 
 4285000      4295000    300.34872    134.74911    150.24329   -80.711949    79.876465 0.00074145668 0.00065407553 0.00058920041    703.66193 
 4290000      4300000    303.53458   -401.20183   -554.49371   -17.507258    502.42195 0.00074018496 0.0006525169 0.00058873317     698.7569 
 4295000      4305000    298.92695   -102.10059   -350.96829    574.39147    -138.3246 0.00073925678 0.00065167756 0.00058734033    693.84986 
 4300000      4310000      302.066    105.49723   -42.857704   -124.90637    61.088045 0.00073894928 0.00065076841 0.00058734834    688.94267 
 4305000      4315000     294.8709    33.326157   -170.42873    366.50513     56.21877 0.00073934339 0.00065095419 0.00058672344    684.03599 
 4310000      4320000    302.59167    288.13044     34.19851    152.01996    58.791379 0.0007384509 0.00065073403 0.00058639473    679.12878 
 4315000      4325000     294.8865   -110.09176   -43.305302   -44.537193   -44.366865 0.00074199913 0.00064923473 0.00058578284    674.22318 
 4320000      4330000    299.59466   -116.74564   -282.77666     53.77692   -126.36872 0.00074310098 0.0006487718 0.00058532242    669.31537 
 4325000      4335000    303.76718       472.77   -565.87794    23.599721   -489.26168 0.00074228898 0.00065144952 0.00058404882    664.40689 
 4330000      4340000    304.86576   -61.204175   -64.341895    33.786681   -135.68493 0.00074110737 0.00065137171 0.00058368139    659.49723 
 4335000      4345000    300.18371    -150.7036   -374.87947    89.662523   -256.53616 0.00074320048 0.00065115791 0.00058289078    654.58863 
 4340000      4350000    298.82237   -702.50943   -141.56417   -324.15116    49.429143 0.00074285182 0.00065139554 0.00058214894    649.67993 
 4345000      4355000    303.48251    874.10852    339.29503    279.65941    260.40749 0.00074189532 0.00065150916 0.0005818588    644.77075 
 4350000      4360000    301.23961    297.36203    52.177212    4.1394952     20.85078 0.00074114254 0.00064999102 0.00058546833    639.86404 
 4355000      4365000     298.2894    251.38967    160.54322    631.43635    169.98611 0.00074027622 0.00065019513 0.00058804041    634.95476 
 4360000      4370000    306.53284    655.20991   -286.55345    89.228866   -490.71613 0.00074145425 0.00064958211 0.00058699622    630.04559 
 4365000      4375000    297.07535    318.55024   -3.5967989     557.6858   -56.863032 0.00074187755 0.00064841326 0.00058602708    625.13477 
 4370000      4380000     297.6904    321.16181   -283.13193   -218.46778     389.1864 0.00074245612 0.00064742227 0.00058470997    620.22536 
 4375000      4385000    298.03679    95.159749   -18.961202   -198.82229    56.051957 0.00074244696 0.00065022418 0.00058436848     615.3151 
 4380000      4390000    298.17015    46.090903    120.38764    483.98804   -158.89671 0.00074115074 0.00065199595 0.00058356488    610.40427 
 4385000      4395000    298.83318   -403.19134   -173.72672   -28.077846   -18.412045 0.00073950152 0.00065109672 0.00058315153    605.49401 
 4390000      4400000    301.16041    131.33674    512.08355   -298.44473   -24.006206 0.00073888754 0.00065058669 0.00058220188    600.58295 
 4395000      4405000    301.21182    105.45258    16.808011    205.94132   -7.9177547 0.0007399689 0.00065098245 0.00058301498    595.67247 
 4400000      4410000    295.67247    469.31032   -534.85711    484.52888    -25.80549 0.00073989463 0.0006494431 0.00058219276    590.76236 
 4405000      4415000    304.98014   -147.14595     508.7627     98.02224   -523.09163 0.00074027313 0.00064831243 0.00058258596    585.85244 
 4410000      4420000    302.18383    319.26244    353.77907   -170.91338    264.68011 0.00073932242 0.00065013046 0.00058085092    580.94078 
 4415000      4425000    297.74033   -85.520444   -352.96701   -294.48352    304.97056 0.00073717715 0.00065054453 0.0005805442    576.03034 
 4420000      4430000    299.31658    430.68596   -45.741139    683.64647   -361.66731 0.00073649648 0.00065098787 0.00057973612    571.11798 
 4425000      4435000    297.52582    196.28754   -5.2397599    459.45242    133.35154 0.00073602755 0.00064937429 0.00057848551    566.20579 
 4430000      4440000    300.67122    19.214783    307.47797   -192.52054   -67.294795 0.00073539922 0.00064915306 0.00057754118    561.29314 
 4435000      4445000    303.82485   -112.46865   -77.354989    248.72053   -142.14666 0.00073620832 0.00064838535 0.00057868825    556.38108 
 4440000      4450000    302.26896   -170.98181    147.48429    145.79457    328.58751 0.00073538759 0.00064806944 0.00058056266    551.46721 
 4445000      4455000    296.69153    159.06142    442.74815    334.86209   -290.65451 0.00073441473 0.00065410768 0.0005823456    546.55461 
 4450000      4460000    305.11504     7.543165   -26.238803    151.66898    72.121283 0.00073447259 0.00065220425 0.00058018344    541.64103 
 4455000      4465000    302.98315    93.848104    5.0185156    107.68177   -196.95099 0.00073459376 0.00065227288  0.000586394    536.72652 
 4460000      4470000    300.97365    329.11927   -75.839702    250.34063    242.97244 0.00073462057 0.00065365044 0.00058593953    531.81233 
 4465000      4475000    299.56738   -296.54848    70.378711    96.571152   -198.34007 0.00073383741 0.00065712634 0.00058517262    526.89952 
 4470000      4480000    295.01911   -60.965798   -261.94022   -19.087522   -304.55149 0.00073423741 0.00065705231 0.00058438958    521.98549 
 4475000      4485000    309.38897   -33.438103   -251.97598   -245.19523   -308.21173 0.00073383153 0.00065987094 0.00058435803    517.07148 
 4480000      4490000     295.9443    412.61778    574.48282    234.91672   -126.45395 0.00073286603 0.00065914375 0.00058690687    512.15651 
 4485000      4495000     300.2284    224.69968   -199.86385   -263.68504   -427.60648 0.00073246587 0.00065872529 0.0005867704    507.24165 
 4490000      4500000    292.95593    170.94533   -136.27045   -813.99986   -415.99061 0.00073133386 0.00065824676 0.00058559364    502.32679 
 4495000      4505000    303.34419   -228.19409   -114.43565    478.98277    473.13182 0.00073120982 0.00065801916 0.00058565372    497.41109 
 4500000      4510000    304.47226    234.56778   -203.33443    -505.0358   -96.294472 0.00072978542 0.00065707654 0.00058866561    492.49502 
 4505000      4515000    297.21714    127.65431    341.04949   -50.976739   -122.32798 0.00073032535 0.00065683967 0.00058866085    487.57926 
 4510000      4520000    301.46937   -30.471348   0.41240101     96.92007    400.23133 0.00072918945 0.00065690761 0.00059150117    482.66331 
 4515000      4525000    296.91001    320.83732    -43.87733    207.56682    828.55597 0.00072970579 0.00066265785 0.00059454531    477.74635 
 4520000      4530000    298.60546    154.19183   -156.94927    293.54088   -250.07189 0.00073501541 0.00066074632 0.00059832003    472.83018 
 4525000      4535000    295.75805    60.073681   -193.26462   -186.89955    303.38169 0.00073890213 0.00066070041 0.00059685453     467.9159 
 4530000      4540000    301.44819    220.08091    113.79803   -174.10453   -424.09521 0.0007387257 0.00066025365 0.00059761219    462.99941 
 4535000      4545000    299.61374    183.11709    26.522162    -44.48626    50.785316 0.00073698022 0.00065975553 0.00059674064    458.08299 
 4540000      4550000    294.19471    358.56079    -143.2147   -385.25315   -305.80044 0.00073694223 0.00065949752 0.00059649908    453.16631 
 4545000      4555000    294.63677   -342.91312    -195.9107    332.56127   -119.20556 0.0007394567 0.00065859442 0.00059611128    448.24915 
 4550000      4560000    302.17306   -89.069257    174.99943   -95.220425   -36.683022 0.00074271614 0.00065791555 0.00059566826    443.33204 
 4555000      4565000    294.01799   -75.409242    -218.5169     85.39574   -213.55998 0.00074406979 0.00065819556 0.00059480395    438.41506 
 4560000      4570000    300.99499   -427.70387   -502.67463    74.194063    367.22973 0.0007480807 0.00065654245 0.00059569107    433.49694 
 4565000      4575000    301.30792   -31.468046   -90.462589   -354.32735    139.08885 0.00074757281 0.00065571655 0.00059681609    428.57901 
 4570000      4580000    300.79906    -100.5356    6.0294487   -159.00675    94.947062 0.00074698677  0.000657832 0.00059676474    423.66051 
 4575000      4585000    297.15661    698.34025    25.608438    91.682657   -359.36425 0.00074638045 0.00065838683 0.00059874374    418.74291 
 4580000      4590000    301.56561   -217.63935   -202.62258    91.968988    37.156592 0.00074652105 0.00065882045 0.00059772937    413.82393 
 4585000      4595000     302.1448    139.42146    65.259323   -15.193462   -134.36441 0.00075016142 0.00065937459 0.00059813521    408.90615 
 4590000      4600000    300.73595    155.91215      -25.997   -125.49687   -401.75553 0.00075284083 0.00065889963 0.00059841763    403.98682 
 4595000      4605000    293.07234    -260.4964    430.50293     920.4285   -170.87883 0.00075052845 0.00065787279 0.00059741835    399.06784 
 4600000      4610000    294.78113    552.29788   -99.012865    251.82205   -671.17141 0.00074949669 0.00065670249 0.00059806181    394.14918 
 4605000      4615000    303.41083    -316.3646    67.248008    393.42193   -545.48302 0.00075181298 0.0006572253 0.00059852878    389.22962 
 4610000      4620000     296.4925    309.85325   -376.56248   -512.89412    -114.9716 0.00075308119 0.00065690714 0.00059756061    384.30924 
 4615000      4625000     298.0637    9.9061149   -246.62502    -28.48425    577.83201 0.00075210947 0.00065628644 0.00059897803    379.38968 
 4620000      4630000    302.26736    719.91318    90.738727   -327.77252   -454.51575 0.00075144982 0.00065580149 0.00059965393    374.46877 
 4625000      4635000    303.65105    71.360516    144.69793   -177.12063   -177.47996 0.00075468199 0.00065495239 0.00059930945    369.54873 
 4630000      4640000    302.74358    101.49699    104.87255   -272.28885   -130.06444 0.00075893208 0.0006545927 0.00060460016    364.62842 
 4635000      4645000     303.9121   -42.243089     206.8404   -49.501305   -25.803601 0.00075668319 0.00065405854 0.00060195217    359.70741 
 4640000      4650000    296.21473    533.87098    95.711978   -420.54062    119.94116 0.00075581114 0.00065342984 0.0006014943    354.78609 
 4645000      4655000    294.46155    227.77433    220.50907     -345.558   -22.997966 0.00075519876 0.00065325793 0.00060061443    349.86492 
 4650000      4660000    303.44908    344.24856    51.858744   -216.44244    164.72554 0.00075466263 0.0006526091 0.00060133681    344.94401 
 4655000      4665000     301.2337    122.12365   -44.995053    100.29102     124.6785 0.00075345335 0.0006519351 0.00060098659    340.02129 
 4660000      4670000    300.18191   -67.064703    437.36407   -61.569429    439.59585 0.00075341784 0.00065094216 0.0006061868    335.09915 
 4665000      4675000    292.05565   -729.42121    220.15672    273.46818    495.89651 0.00075239676 0.0006506315 0.00060507637    330.17771 
 4670000      4680000     294.6606    741.12348   -447.93309    248.35121   -82.665905 0.00075254696 0.00065379792 0.00060431647    325.25564 
 4675000      4685000    303.27521    576.33527    -389.5635    480.43134    -233.8993 0.00075171614 0.00065220276 0.00060675032    320.33326 
 4680000      4690000     302.8542     258.9169    12.339374    9.3006035    135.03485 0.00075112907 0.00065269923 0.00060593011    315.41023 
 4685000      4695000    294.81451    117.68928   -230.31062   -14.063472   -244.34594 0.00075044629 0.00065272244 0.00060559699    310.48713 
 4690000      4700000    297.88122    40.224286    127.64939     -167.741    367.51755 0.00075008959 0.00065252763 0.00060460946    305.56385 
 4695000      4705000    301.33884    44.222187    -186.6336   -106.36002   -513.15757 0.00075157895 0.00065187681 0.00060431947    300.64035 
 4700000      4710000    295.22487   -254.93563    6.8615964    7.3563622    141.83721 0.00075070705 0.00065194983 0.00060367607    295.71611 
 4705000      4715000     300.0821   -20.646393   -252.63608    117.36642   -92.822301 0.00074993529 0.00065166104 0.00060262198    290.79283 
 4710000      4720000      298.304   -350.46395   -199.40278    6.5828887    312.76962 0.00074974815 0.00065075479 0.00060182204    285.86912 
 4715000      4725000    306.65267    206.63003   -58.945524   -284.21002   -106.81665 0.00075073892 0.00065097743 0.0006015226    280.94542 
 4720000      4730000    294.60147    173.84168   -270.93933    380.00361    132.30945 0.00075169752 0.00065438047 0.00060194057    276.02106 
 4725000      4735000    297.26452    151.32453   -158.72994    125.58538    167.16076 0.00075099472 0.00065664545 0.00060178089    271.09636 
 4730000      4740000    301.69129   -23.736869    287.28821    362.12133   -194.81898 0.00075182024 0.00065539514 0.00060134752    266.17217 
 4735000      4745000    296.93045    634.45544    51.114082    219.42064   -126.22606 0.00075096836 0.00065471995 0.00060199231    261.24771 
 4740000      4750000    300.89194    382.17658    99.416764   -75.291073    144.49416 0.00075181965 0.00065268772 0.00060162182    256.32302 
 4745000      4755000    288.83174     271.0583   -70.026654     137.3644    127.00007 0.00075458045 0.00065222743 0.00060311304    251.39809 
 4750000      4760000    300.31999    66.816885   -109.74268     341.8545   -229.43648 0.00075689606 0.00065184843 0.0006034968    246.47294 
 4755000      4765000    298.12183    290.35898    -227.7305    263.54238    34.231073 0.00075925486 0.00065289588 0.00060375392    241.54762 
 4760000      4770000    296.47246    400.97141   -199.08157   -298.75934    320.18574 0.00075887948 0.00065180608 0.00060629613    236.62213 
 4765000      4775000    301.26687   -172.72533   -1030.5661   -261.25187    302.15571 0.00076061341 0.0006524017 0.00060566052    231.69714 
 4770000      4780000    297.51314   -58.945737    336.27033   -170.97905   -184.35012 0.00076079156 0.00065160521 0.0006049379    226.77142 
 4775000      4785000    299.69864   -29.809954   -343.02646    243.34207    266.33301 0.00076097737 0.0006505845 0.00060407868    221.84547 
 4780000      4790000    297.67681   -118.36834   -100.02631   -364.71884     112.9351 0.00076007366 0.0006499025 0.00060323869    216.91944 
 4785000      4795000    297.76954    263.58575    350.20284    123.09917    271.06409 0.00075943665 0.00065110973 0.00060307484    211.99337 
 4790000      4800000    302.77309   -50.873844    374.15571    68.063577     304.7995 0.00075939762 0.00065119451 0.00060233096    207.06692 
 4795000      4805000    292.91329    557.60786   -289.41659   -94.128349   -19.456946 0.00075921688 0.00065278325 0.00060302433    202.14046 
 4800000      4810000    303.32566      285.178   -238.71108   -142.41711   -92.967773 0.00076057676 0.00065211827 0.00060285913    197.21326 
 4805000      4815000    301.51606    280.06409    468.16791    262.94143    -134.6607 0.00075997601 0.00065115305 0.0006019785    192.28639 
 4810000      4820000    302.99508    314.24397   -327.83554   -158.70775    217.97499 0.00076013667  0.000650093 0.00060706249    187.35927 
 4815000      4825000    300.35908    -105.2278    -11.35868   -404.30951   -467.76778 0.00075901004 0.00064974652 0.00060746937    182.43158 
 4820000      4830000    301.00398    371.73028   -105.58553    261.10434    55.324974 0.00075848964 0.0006493191 0.00060799781    177.50375 
 4825000      4835000    298.16721    178.44223   -51.083094    308.24663    162.35153 0.00075711038 0.00064976662 0.0006073792    172.57611 
 4830000      4840000    302.35092    251.94401   -15.060301    16.829495    151.13807 0.00075615433 0.00064990967 0.0006079971     167.6483 
 4835000      4845000     302.2342    117.69451    317.99639   -97.525486   -80.856681 0.00075550131  0.000650096 0.00060715093    162.72025 
 4840000      4850000    297.54919   -324.73065   -480.42644    531.75772     5.044765 0.00075629549 0.00064943056 0.00060695714    157.79213 
 4845000      4855000    302.81974   -95.279044    432.81467   -240.43774     63.86067 0.00075623432 0.00064887412 0.00060586436    152.86378 
 4850000      4860000    300.63505    290.61504    100.03178   -435.20562   -126.26594 0.00075532061 0.00064787805 0.00060811802    147.93538 
 4855000      4865000    297.69112   -106.46896     304.4745    -274.5346   -17.483319 0.00075444718 0.00064830613 0.00060858166    143.00661 
 4860000      4870000    296.39767   -220.49181   -212.75192    323.89366    -56.20228 0.00075438586 0.00064829214 0.00061072821    138.07754 
 4865000      4875000     306.7511     292.4295   -67.967035    383.64098   -447.50159 0.00075381471 0.0006470623 0.00060972759    133.14829 
 4870000      4880000    306.81583    -16.87291   -333.29759    27.786362    292.95053 0.00075321343 0.00064628213 0.00060916681    128.21895 
 4875000      4885000    295.86955    176.76978    106.57352    947.77439   -678.53078 0.00075492513 0.00064592775 0.00060838037    123.28972 
 4880000      4890000     293.8185     67.57353    30.969037    18.422834    550.28669 0.00075285359 0.0006464615 0.00060784851    118.36007 
 4885000      4895000    298.78557    124.00035     63.85986   -161.17483    87.288431 0.00075471956 0.00064901831 0.00060725157    113.43043 
 4890000      4900000    296.36574    331.75389    311.21825   -609.42117    546.80353 0.00075579413 0.00064801479 0.00060712867     108.5003 
 4895000      4905000    300.55314    388.46303     512.4392   -25.655696    274.59198 0.00075727749 0.00064743631 0.00060807519    103.57022 
 4900000      4910000     295.1263    283.94115    369.15508    195.85174   -139.60431 0.00075605775 0.00064862209 0.00061296066    98.639688 
 4905000      4915000    300.44699    -66.79158    152.66324    149.14374   -23.815225 0.00075908928 0.00064888458 0.00061206941    93.709362 
 4910000      4920000    301.84401    -85.31495    122.84228    406.93114   -407.07245 0.00075859895 0.00064788779 0.00061200089    88.778778 
 4915000      4925000    293.26413    748.70854   -204.23394   -86.414773    40.109617 0.0007578443 0.00064705054 0.00061175212    83.848187 
 4920000      4930000    304.56066   -84.894524    408.99172    48.800379    493.49673 0.00075695448 0.00064644596 0.00061243319    78.917189 
 4925000      4935000    294.80609   -63.370377     238.0207   -89.916009    540.65707 0.00075736387 0.00064594251 0.00061389634    73.986362 
 4930000      4940000    306.76107   -165.02695    115.61064    4.9254063    326.52814 0.00075799065 0.00064532285 0.00061352725    69.054983 
 4935000      4945000    299.13011    474.72666   -86.395472    343.04062    38.552328 0.00075951969 0.00064417409 0.00061656633    64.123534 
 4940000      4950000    300.33156    241.59548     20.02959   -12.759985   -405.77887 0.00076054645 0.00064407569 0.00061557912    59.191891 
 4945000      4955000    305.61857    96.995176   -5.8580283   -499.55138   -503.83031 0.00076031915 0.00064316088 0.00061459422     54.26018 
 4950000      4960000    302.06386    747.75084   -130.39286    537.68195    311.27899 0.00076042172 0.00064288834 0.00061397639    49.328234 
 4955000      4965000    300.97431     -25.8722   -569.45731    582.18156    -193.8289 0.00076100557 0.00064282551 0.00061336296    44.396118 
 4960000      4970000    294.41246   -3.8565106    412.98267   -151.06388   -68.504002 0.00076048676 0.00064201571 0.0006137457    39.463859 
 4965000      4975000    299.43401   -59.347284    155.01984    66.188828    68.214659 0.00076163229 0.00064316139 0.00061631681    34.531393 
 4970000      4980000    303.30445    505.91576    146.58951    387.04549   -5.4747583 0.00076090941 0.00064382214 0.00061394082    29.598814 
 4975000      4985000    299.37892     88.12487    -103.2823    131.61372    426.56598 0.00076024972 0.00064518095 0.00061363025    24.666112 
 4980000      4990000    295.96856   -28.572765     219.9246      50.3181    228.60402 0.0007598044 0.00064772046 0.00061322443    19.733211 
 4985000      4995000    297.68549    544.91711    106.67141   -181.88043    54.039143 0.00075967077 0.00064626897 0.00061401775    14.800129 
 4990000      5000000    307.90514    38.628698   -309.70949   -438.80808   -188.32464 0.0007587457 0.00064670645 0.00061308119    9.8669007 
 4995000      5005000    300.90653    378.04977   -288.14602    272.78269    129.76976 0.00075716842 0.00064776417 0.00061413424    4.9335206 
 5000000      5010000    297.08043   -45.586751     336.8542   -379.21814   -145.76299 0.00075659081 0.00065164464 0.00061256886            0 
Loop time of 4933.6 on 2 procs for 5000000 steps with 5184 atoms

Performance: 87.563 ns/day, 0.274 hours/ns, 1013.459 timesteps/s
84.4% CPU use with 2 MPI tasks x 1 OpenMP threads

MPI task timing breakdown:
Section |  min time  |  avg time  |  max time  |%varavg| %total
---------------------------------------------------------------
Pair    | 921.14     | 959.32     | 997.5      | 123.3 | 19.44
Bond    | 1.4739     | 1.7543     | 2.0347     |  21.2 |  0.04
Kspace  | 1523.3     | 1541.5     | 1559.7     |  46.4 | 31.24
Neigh   | 7.177      | 7.4301     | 7.6832     |   9.3 |  0.15
Comm    | 814.3      | 814.65     | 815        |   1.2 | 16.51
Output  | 0.10461    | 3.6068     | 7.1091     | 184.4 |  0.07
Modify  | 1417.3     | 1441.6     | 1466       |  64.2 | 29.22
Other   |            | 163.7      |            |       |  3.32

Nlocal:        2592.00 ave        2599 max        2585 min
Histogram: 1 0 0 0 0 0 0 0 0 1
Nghost:        17235.0 ave       17261 max       17209 min
Histogram: 1 0 0 0 0 0 0 0 0 1
Neighs:         0.00000 ave           0 max           0 min
Histogram: 2 0 0 0 0 0 0 0 0 0

Total # of neighbors = 0
Ave neighs/atom = 0.0000000
Ave special neighs/atom = 2.0000000
Neighbor list builds = 243132
Dangerous builds = 0
variable     v equal (v_v11+v_v22+v_v33)/3.0
variable     ndens equal count(all)/vol
print        "average viscosity: $v [Pa.s] @ $T K, ${ndens} /A^3"
average viscosity: 0.000673601434956748 [Pa.s] @ 300 K, 0.0999767285178532 /A^3








Total wall time: 1:22:25
